  Version,25.1;

  RunPeriod,
    Untitled (O1-O1:31-12),  !- Name
    1,                       !- Begin Month
    1,                       !- Begin Day of Month
    ,                        !- Begin Year
    12,                      !- End Month
    31,                      !- End Day of Month
    ,                        !- End Year
    ,                        !- Day of Week for Start Day
    No,                      !- Use Weather File Holidays and Special Days
    No,                      !- Use Weather File Daylight Saving Period
    Yes,                     !- Apply Weekend Holiday Rule
    Yes,                     !- Use Weather File Rain Indicators
    Yes,                     !- Use Weather File Snow Indicators
    ;                        !- Treat Weather as Actual

  RunPeriodControl:DaylightSavingTime,
    1st Sunday in April,     !- Start Date
    Last Sunday in October;  !- End Date

  Site:Location,
    Untitled (O1-O1:31-12)  (01-01:31-12),  !- Name
    39.74,                   !- Latitude {deg}
    -105.18,                 !- Longitude {deg}
    -7,                      !- Time Zone {hr}
    1829;                      !- Elevation {m}

  Site:GroundTemperature:BuildingSurface,18,18,18,18,18,18,18,18,18,18,18,18;

  Site:GroundTemperature:Deep,14,14,14,14,14,14,14,14,14,14,14,14;

  Site:GroundTemperature:Shallow,14,14,14,14,14,14,14,14,14,14,14,14;

  Site:GroundTemperature:FCfactorMethod,14.23,13.98,14.43,15.14,16.99,18.42,19.38,19.68,19.18,18.07,16.58,15.21;

  Site:GroundReflectance,0.2,0.2,0.2,0.2,0.2,0.2,0.2,0.2,0.2,0.2,0.2,0.2;

  Site:GroundReflectance:SnowModifier,
    2.0,                     !- Ground Reflected Solar Modifier
    2.0;                     !- Daylighting Ground Reflected Solar Modifier

  SimulationControl,
    Yes,                     !- Do Zone Sizing Calculation
    Yes,                     !- Do System Sizing Calculation
    No,                      !- Do Plant Sizing Calculation
    No,                      !- Run Simulation for Sizing Periods
    Yes,                     !- Run Simulation for Weather File Run Periods
    No,                      !- Do HVAC Sizing Simulation for Sizing Periods
    1;                       !- Maximum Number of HVAC Sizing Simulation Passes

  SizingPeriod:DesignDay,
    Summer Design Day in Untitled (O1-O1:31-12) Jul,  !- Name
    7,                       !- Month
    15,                      !- Day of Month
    SummerDesignDay,         !- Day Type
    27.7,                    !- Maximum Dry-Bulb Temperature {C}
    6.6,                     !- Daily Dry-Bulb Temperature Range {deltaC}
    ,                        !- Dry-Bulb Temperature Range Modifier Type
    ,                        !- Dry-Bulb Temperature Range Modifier Day Schedule Name
    WetBulb,                 !- Humidity Condition Type
    21.4,                    !- Wetbulb or DewPoint at Maximum Dry-Bulb {C}
    ,                        !- Humidity Condition Day Schedule Name
    ,                        !- Humidity Ratio at Maximum Dry-Bulb {kgWater/kgDryAir}
    ,                        !- Enthalpy at Maximum Dry-Bulb {J/kg}
    ,                        !- Daily Wet-Bulb Temperature Range {deltaC}
    100141.3,                !- Barometric Pressure {Pa}
    0,                       !- Wind Speed {m/s}
    0,                       !- Wind Direction {deg}
    No,                      !- Rain Indicator
    No,                      !- Snow Indicator
    Yes,                     !- Daylight Saving Time Indicator
    ASHRAEClearSky,          !- Solar Model Indicator
    ,                        !- Beam Solar Day Schedule Name
    ,                        !- Diffuse Solar Day Schedule Name
    ,                        !- ASHRAE Clear Sky Optical Depth for Beam Irradiance (taub) {dimensionless}
    ,                        !- ASHRAE Clear Sky Optical Depth for Diffuse Irradiance (taud) {dimensionless}
    0.98;                    !- Sky Clearness

  SizingPeriod:DesignDay,
    Summer Design Day in Untitled (O1-O1:31-12) Aug,  !- Name
    8,                       !- Month
    15,                      !- Day of Month
    SummerDesignDay,         !- Day Type
    29.1,                    !- Maximum Dry-Bulb Temperature {C}
    7.3,                     !- Daily Dry-Bulb Temperature Range {deltaC}
    ,                        !- Dry-Bulb Temperature Range Modifier Type
    ,                        !- Dry-Bulb Temperature Range Modifier Day Schedule Name
    WetBulb,                 !- Humidity Condition Type
    20.8,                    !- Wetbulb or DewPoint at Maximum Dry-Bulb {C}
    ,                        !- Humidity Condition Day Schedule Name
    ,                        !- Humidity Ratio at Maximum Dry-Bulb {kgWater/kgDryAir}
    ,                        !- Enthalpy at Maximum Dry-Bulb {J/kg}
    ,                        !- Daily Wet-Bulb Temperature Range {deltaC}
    100141.3,                !- Barometric Pressure {Pa}
    0,                       !- Wind Speed {m/s}
    0,                       !- Wind Direction {deg}
    No,                      !- Rain Indicator
    No,                      !- Snow Indicator
    Yes,                     !- Daylight Saving Time Indicator
    ASHRAEClearSky,          !- Solar Model Indicator
    ,                        !- Beam Solar Day Schedule Name
    ,                        !- Diffuse Solar Day Schedule Name
    ,                        !- ASHRAE Clear Sky Optical Depth for Beam Irradiance (taub) {dimensionless}
    ,                        !- ASHRAE Clear Sky Optical Depth for Diffuse Irradiance (taud) {dimensionless}
    0.98;                    !- Sky Clearness

  SizingPeriod:DesignDay,
    Summer Design Day in Untitled (O1-O1:31-12) Sep,  !- Name
    9,                       !- Month
    15,                      !- Day of Month
    SummerDesignDay,         !- Day Type
    30.6,                    !- Maximum Dry-Bulb Temperature {C}
    8.6,                     !- Daily Dry-Bulb Temperature Range {deltaC}
    ,                        !- Dry-Bulb Temperature Range Modifier Type
    ,                        !- Dry-Bulb Temperature Range Modifier Day Schedule Name
    WetBulb,                 !- Humidity Condition Type
    18.7,                    !- Wetbulb or DewPoint at Maximum Dry-Bulb {C}
    ,                        !- Humidity Condition Day Schedule Name
    ,                        !- Humidity Ratio at Maximum Dry-Bulb {kgWater/kgDryAir}
    ,                        !- Enthalpy at Maximum Dry-Bulb {J/kg}
    ,                        !- Daily Wet-Bulb Temperature Range {deltaC}
    100141.3,                !- Barometric Pressure {Pa}
    0,                       !- Wind Speed {m/s}
    0,                       !- Wind Direction {deg}
    No,                      !- Rain Indicator
    No,                      !- Snow Indicator
    Yes,                     !- Daylight Saving Time Indicator
    ASHRAEClearSky,          !- Solar Model Indicator
    ,                        !- Beam Solar Day Schedule Name
    ,                        !- Diffuse Solar Day Schedule Name
    ,                        !- ASHRAE Clear Sky Optical Depth for Beam Irradiance (taub) {dimensionless}
    ,                        !- ASHRAE Clear Sky Optical Depth for Diffuse Irradiance (taud) {dimensionless}
    0.98;                    !- Sky Clearness

  SizingPeriod:DesignDay,
    Winter Design Day in Untitled (O1-O1:31-12),  !- Name
    1,                       !- Month
    15,                      !- Day of Month
    WinterDesignDay,         !- Day Type
    7,                       !- Maximum Dry-Bulb Temperature {C}
    0,                       !- Daily Dry-Bulb Temperature Range {deltaC}
    ,                        !- Dry-Bulb Temperature Range Modifier Type
    ,                        !- Dry-Bulb Temperature Range Modifier Day Schedule Name
    WetBulb,                 !- Humidity Condition Type
    7,                       !- Wetbulb or DewPoint at Maximum Dry-Bulb {C}
    ,                        !- Humidity Condition Day Schedule Name
    ,                        !- Humidity Ratio at Maximum Dry-Bulb {kgWater/kgDryAir}
    ,                        !- Enthalpy at Maximum Dry-Bulb {J/kg}
    ,                        !- Daily Wet-Bulb Temperature Range {deltaC}
    100141.3,                !- Barometric Pressure {Pa}
    11.2,                    !- Wind Speed {m/s}
    0,                       !- Wind Direction {deg}
    No,                      !- Rain Indicator
    No,                      !- Snow Indicator
    No,                      !- Daylight Saving Time Indicator
    ,                        !- Solar Model Indicator
    ,                        !- Beam Solar Day Schedule Name
    ,                        !- Diffuse Solar Day Schedule Name
    ,                        !- ASHRAE Clear Sky Optical Depth for Beam Irradiance (taub) {dimensionless}
    ,                        !- ASHRAE Clear Sky Optical Depth for Diffuse Irradiance (taud) {dimensionless}
    0;                       !- Sky Clearness

  Timestep,2;

  ConvergenceLimits,
    1,                       !- Minimum System Timestep {minutes}
    25;                      !- Maximum HVAC Iterations

  ScheduleTypeLimits,
    Any Number;              !- Name

  ScheduleTypeLimits,
    Fraction,                !- Name
    0.0,                     !- Lower Limit Value
    1.0,                     !- Upper Limit Value
    CONTINUOUS;              !- Numeric Type

  ScheduleTypeLimits,
    Temperature,             !- Name
    -60,                     !- Lower Limit Value
    200,                     !- Upper Limit Value
    CONTINUOUS;              !- Numeric Type

  ScheduleTypeLimits,
    Control Type,            !- Name
    0,                       !- Lower Limit Value
    4,                       !- Upper Limit Value
    DISCRETE;                !- Numeric Type

  ScheduleTypeLimits,
    On/Off,                  !- Name
    0,                       !- Lower Limit Value
    1,                       !- Upper Limit Value
    DISCRETE;                !- Numeric Type

  Schedule:Compact,
    On,                      !- Name
    Any Number,              !- Schedule Type Limits Name
    Through: 12/31,          !- Field 1
    For: AllDays,            !- Field 2
    Until: 24:00,1;          !- Field 3

  Schedule:Compact,
    Off,                     !- Name
    Any Number,              !- Schedule Type Limits Name
    Through: 12/31,          !- Field 1
    For: AllDays,            !- Field 2
    Until: 24:00,0;          !- Field 3

  Schedule:Compact,
    Work efficiency,         !- Name
    Any Number,              !- Schedule Type Limits Name
    Through: 12/31,          !- Field 1
    For: AllDays,            !- Field 2
    Until: 24:00,0;          !- Field 3

  Schedule:Compact,
    OpaqueShade,             !- Name
    Any Number,              !- Schedule Type Limits Name
    Through: 12/31,          !- Field 1
    For: AllDays,            !- Field 2
    Until: 24:00,0;          !- Field 3

  Schedule:Compact,
    Zone Comfort Control Type Sched,  !- Name
    Control Type,            !- Schedule Type Limits Name
    Through: 12/31,          !- Field 1
    For: AllDays,            !- Field 2
    Until: 24:00,4;          !- Field 3

  Schedule:Compact,
    Design Days Only,        !- Name
    Any Number,              !- Schedule Type Limits Name
    Through: 12/31,          !- Field 1
    For: SummerDesignDay WinterDesignDay, !- Field 2
    Until: 24:00,1,          !- Field 3
    For: AllOtherDays,       !- Field 5
    Until: 24:00,0;          !- Field 6

! off heating day

  Schedule:Day:Hourly,
    0,                       !- Name
    Any Number,              !- Schedule Type Limits Name
    0,                       !- Hour 1
    0,                       !- Hour 2
    0,                       !- Hour 3
    0,                       !- Hour 4
    0,                       !- Hour 5
    0,                       !- Hour 6
    0,                       !- Hour 7
    0,                       !- Hour 8
    0,                       !- Hour 9
    0,                       !- Hour 10
    0,                       !- Hour 11
    0,                       !- Hour 12
    0,                       !- Hour 13
    0,                       !- Hour 14
    0,                       !- Hour 15
    0,                       !- Hour 16
    0,                       !- Hour 17
    0,                       !- Hour 18
    0,                       !- Hour 19
    0,                       !- Hour 20
    0,                       !- Hour 21
    0,                       !- Hour 22
    0,                       !- Hour 23
    0;                       !- Hour 24

! off cooling day

  Schedule:Day:Hourly,
    50,                      !- Name
    Any Number,              !- Schedule Type Limits Name
    50,                      !- Hour 1
    50,                      !- Hour 2
    50,                      !- Hour 3
    50,                      !- Hour 4
    50,                      !- Hour 5
    50,                      !- Hour 6
    50,                      !- Hour 7
    50,                      !- Hour 8
    50,                      !- Hour 9
    50,                      !- Hour 10
    50,                      !- Hour 11
    50,                      !- Hour 12
    50,                      !- Hour 13
    50,                      !- Hour 14
    50,                      !- Hour 15
    50,                      !- Hour 16
    50,                      !- Hour 17
    50,                      !- Hour 18
    50,                      !- Hour 19
    50,                      !- Hour 20
    50,                      !- Hour 21
    50,                      !- Hour 22
    50,                      !- Hour 23
    50;                      !- Hour 24

! used in seasonal schedules

  Schedule:Day:Hourly,
    Off,                     !- Name
    Fraction,                !- Schedule Type Limits Name
    0,                       !- Hour 1
    0,                       !- Hour 2
    0,                       !- Hour 3
    0,                       !- Hour 4
    0,                       !- Hour 5
    0,                       !- Hour 6
    0,                       !- Hour 7
    0,                       !- Hour 8
    0,                       !- Hour 9
    0,                       !- Hour 10
    0,                       !- Hour 11
    0,                       !- Hour 12
    0,                       !- Hour 13
    0,                       !- Hour 14
    0,                       !- Hour 15
    0,                       !- Hour 16
    0,                       !- Hour 17
    0,                       !- Hour 18
    0,                       !- Hour 19
    0,                       !- Hour 20
    0,                       !- Hour 21
    0,                       !- Hour 22
    0,                       !- Hour 23
    0;                       !- Hour 24

  Schedule:Week:Daily,
    Off,                     !- Name
    Off,                     !- Sunday Schedule:Day Name
    Off,                     !- Monday Schedule:Day Name
    Off,                     !- Tuesday Schedule:Day Name
    Off,                     !- Wednesday Schedule:Day Name
    Off,                     !- Thursday Schedule:Day Name
    Off,                     !- Friday Schedule:Day Name
    Off,                     !- Saturday Schedule:Day Name
    Off,                     !- Holiday Schedule:Day Name
    Off,                     !- SummerDesignDay Schedule:Day Name
    Off,                     !- WinterDesignDay Schedule:Day Name
    Off,                     !- CustomDay1 Schedule:Day Name
    Off;                     !- CustomDay2 Schedule:Day Name

! -------------------- Control type schedules (for heating & cooling) ----------------------

  Schedule:Day:Hourly,
    Summer Control Type Day Sch,  !- Name
    Control Type,            !- Schedule Type Limits Name
    4,                       !- Hour 1
    4,                       !- Hour 2
    4,                       !- Hour 3
    4,                       !- Hour 4
    4,                       !- Hour 5
    4,                       !- Hour 6
    4,                       !- Hour 7
    4,                       !- Hour 8
    4,                       !- Hour 9
    4,                       !- Hour 10
    4,                       !- Hour 11
    4,                       !- Hour 12
    4,                       !- Hour 13
    4,                       !- Hour 14
    4,                       !- Hour 15
    4,                       !- Hour 16
    4,                       !- Hour 17
    4,                       !- Hour 18
    4,                       !- Hour 19
    4,                       !- Hour 20
    4,                       !- Hour 21
    4,                       !- Hour 22
    4,                       !- Hour 23
    4;                       !- Hour 24

  Schedule:Day:Hourly,
    Winter Control Type Day Sch,  !- Name
    Control Type,            !- Schedule Type Limits Name
    4,                       !- Hour 1
    4,                       !- Hour 2
    4,                       !- Hour 3
    4,                       !- Hour 4
    4,                       !- Hour 5
    4,                       !- Hour 6
    4,                       !- Hour 7
    4,                       !- Hour 8
    4,                       !- Hour 9
    4,                       !- Hour 10
    4,                       !- Hour 11
    4,                       !- Hour 12
    4,                       !- Hour 13
    4,                       !- Hour 14
    4,                       !- Hour 15
    4,                       !- Hour 16
    4,                       !- Hour 17
    4,                       !- Hour 18
    4,                       !- Hour 19
    4,                       !- Hour 20
    4,                       !- Hour 21
    4,                       !- Hour 22
    4,                       !- Hour 23
    4;                       !- Hour 24

  Schedule:Day:Hourly,
    Summer Control Type Day Sch - cool,  !- Name
    Control Type,            !- Schedule Type Limits Name
    2,                       !- Hour 1
    2,                       !- Hour 2
    2,                       !- Hour 3
    2,                       !- Hour 4
    2,                       !- Hour 5
    2,                       !- Hour 6
    2,                       !- Hour 7
    2,                       !- Hour 8
    2,                       !- Hour 9
    2,                       !- Hour 10
    2,                       !- Hour 11
    2,                       !- Hour 12
    2,                       !- Hour 13
    2,                       !- Hour 14
    2,                       !- Hour 15
    2,                       !- Hour 16
    2,                       !- Hour 17
    2,                       !- Hour 18
    2,                       !- Hour 19
    2,                       !- Hour 20
    2,                       !- Hour 21
    2,                       !- Hour 22
    2,                       !- Hour 23
    2;                       !- Hour 24

  Schedule:Day:Hourly,
    Winter Control Type Day Sch - heat,  !- Name
    Control Type,            !- Schedule Type Limits Name
    1,                       !- Hour 1
    1,                       !- Hour 2
    1,                       !- Hour 3
    1,                       !- Hour 4
    1,                       !- Hour 5
    1,                       !- Hour 6
    1,                       !- Hour 7
    1,                       !- Hour 8
    1,                       !- Hour 9
    1,                       !- Hour 10
    1,                       !- Hour 11
    1,                       !- Hour 12
    1,                       !- Hour 13
    1,                       !- Hour 14
    1,                       !- Hour 15
    1,                       !- Hour 16
    1,                       !- Hour 17
    1,                       !- Hour 18
    1,                       !- Hour 19
    1,                       !- Hour 20
    1,                       !- Hour 21
    1,                       !- Hour 22
    1,                       !- Hour 23
    1;                       !- Hour 24

  Schedule:Week:Daily,
    Summer Control Type Week Sch,  !- Name
    Summer Control Type Day Sch,  !- Sunday Schedule:Day Name
    Summer Control Type Day Sch,  !- Monday Schedule:Day Name
    Summer Control Type Day Sch,  !- Tuesday Schedule:Day Name
    Summer Control Type Day Sch,  !- Wednesday Schedule:Day Name
    Summer Control Type Day Sch,  !- Thursday Schedule:Day Name
    Summer Control Type Day Sch,  !- Friday Schedule:Day Name
    Summer Control Type Day Sch,  !- Saturday Schedule:Day Name
    Summer Control Type Day Sch,  !- Holiday Schedule:Day Name
    Summer Control Type Day Sch,  !- SummerDesignDay Schedule:Day Name
    Summer Control Type Day Sch,  !- WinterDesignDay Schedule:Day Name
    Summer Control Type Day Sch,  !- CustomDay1 Schedule:Day Name
    Summer Control Type Day Sch;  !- CustomDay2 Schedule:Day Name

  Schedule:Week:Daily,
    Winter Control Type Week Sch,  !- Name
    Winter Control Type Day Sch,  !- Sunday Schedule:Day Name
    Winter Control Type Day Sch,  !- Monday Schedule:Day Name
    Winter Control Type Day Sch,  !- Tuesday Schedule:Day Name
    Winter Control Type Day Sch,  !- Wednesday Schedule:Day Name
    Winter Control Type Day Sch,  !- Thursday Schedule:Day Name
    Winter Control Type Day Sch,  !- Friday Schedule:Day Name
    Winter Control Type Day Sch,  !- Saturday Schedule:Day Name
    Winter Control Type Day Sch,  !- Holiday Schedule:Day Name
    Winter Control Type Day Sch,  !- SummerDesignDay Schedule:Day Name
    Winter Control Type Day Sch,  !- WinterDesignDay Schedule:Day Name
    Winter Control Type Day Sch,  !- CustomDay1 Schedule:Day Name
    Winter Control Type Day Sch;  !- CustomDay2 Schedule:Day Name

  Schedule:Week:Daily,
    Summer Control Type Week Sch - cool,  !- Name
    Summer Control Type Day Sch - cool,  !- Sunday Schedule:Day Name
    Summer Control Type Day Sch - cool,  !- Monday Schedule:Day Name
    Summer Control Type Day Sch - cool,  !- Tuesday Schedule:Day Name
    Summer Control Type Day Sch - cool,  !- Wednesday Schedule:Day Name
    Summer Control Type Day Sch - cool,  !- Thursday Schedule:Day Name
    Summer Control Type Day Sch - cool,  !- Friday Schedule:Day Name
    Summer Control Type Day Sch - cool,  !- Saturday Schedule:Day Name
    Summer Control Type Day Sch - cool,  !- Holiday Schedule:Day Name
    Summer Control Type Day Sch - cool,  !- SummerDesignDay Schedule:Day Name
    Summer Control Type Day Sch - cool,  !- WinterDesignDay Schedule:Day Name
    Summer Control Type Day Sch - cool,  !- CustomDay1 Schedule:Day Name
    Summer Control Type Day Sch - cool;  !- CustomDay2 Schedule:Day Name

  Schedule:Week:Daily,
    Winter Control Type Week Sch - heat,  !- Name
    Winter Control Type Day Sch - heat,  !- Sunday Schedule:Day Name
    Winter Control Type Day Sch - heat,  !- Monday Schedule:Day Name
    Winter Control Type Day Sch - heat,  !- Tuesday Schedule:Day Name
    Winter Control Type Day Sch - heat,  !- Wednesday Schedule:Day Name
    Winter Control Type Day Sch - heat,  !- Thursday Schedule:Day Name
    Winter Control Type Day Sch - heat,  !- Friday Schedule:Day Name
    Winter Control Type Day Sch - heat,  !- Saturday Schedule:Day Name
    Winter Control Type Day Sch - heat,  !- Holiday Schedule:Day Name
    Winter Control Type Day Sch - heat,  !- SummerDesignDay Schedule:Day Name
    Winter Control Type Day Sch - heat,  !- WinterDesignDay Schedule:Day Name
    Winter Control Type Day Sch - heat,  !- CustomDay1 Schedule:Day Name
    Winter Control Type Day Sch - heat;  !- CustomDay2 Schedule:Day Name

!Material:InfraredTransparent,
!IRTMaterial; !- Name
!Construction,
!IRTSurface,  !- Name
!IRTMaterial; !- Outside Layer

  Material:NoMass,
    LinearBridgingLayer,     !- Name
    Rough,                   !- Roughness
    0.6267,                  !- Thermal Resistance {m2-K/W}
    0.0100000,               !- Thermal Absorptance
    0.0100000,               !- Solar Absorptance
    0.0100000;               !- Visible Absorptance

  Construction,
    LinearBridgingConstruction,  !- Name
    LinearBridgingLayer;     !- Outside Layer

  Schedule:Compact,
    TypOperativeTempControlSch,  !- Name
    Temperature,             !- Schedule Type Limits Name
    Through: 31 Dec,         !- Field 1
    For: SummerDesignDay WinterDesignDay, !- Field 2
    Until: 24:00,0.0,        !- Field 3
    For: AllOtherDays,       !- Field 5
    Until: 24:00,0.5;        !- Field 6

  Schedule:Compact,
    OnWinterDesignDay,       !- Name
    Any Number,              !- Schedule Type Limits Name
    Through: 12/31,          !- Field 1
    For: WinterDesignDay,    !- Field 2
    Until: 24:00,1,          !- Field 3
    For: AllOtherDays,       !- Field 5
    Until: 24:00,0;          !- Field 6

  Schedule:Compact,
    OnSummerDesignDay,       !- Name
    Any Number,              !- Schedule Type Limits Name
    Through: 12/31,          !- Field 1
    For: SummerDesignDay,    !- Field 2
    Until: 24:00,1,          !- Field 3
    For: AllOtherDays,       !- Field 5
    Until: 24:00,0;          !- Field 6

  Schedule:Compact,
    AirVelocitySchedule,     !- Name
    Any Number,              !- Schedule Type Limits Name
    Through: 12/31,          !- Field 1
    For: AllDays,            !- Field 2
    Until: 24:00,.137;       !- Field 3

  Material:InfraredTransparent,
    IRTMaterial;             !- Name

  Construction,
    IRTSurface,              !- Name
    IRTMaterial;             !- Outside Layer

! Schedule: On 24/7

  Schedule:Compact,
    On 24/7,                 !- Name
    Any Number,              !- Schedule Type Limits Name
    Through: 12/31,          !- Field 1
    For: AllDays,            !- Field 2
    Until: 24:00,1;          !- Field 3

! Schedule: Dwell_DomBath_Occ

  Schedule:Compact,
    Dwell_DomBath_Occ,       !- Name
    Fraction,                !- Schedule Type Limits Name
    Through: 31 Dec,         !- Field 1
    For: Weekdays SummerDesignDay, !- Field 2
    Until: 07:00,0,          !- Field 3
    Until: 10:00,1,          !- Field 5
    Until: 19:00,0,          !- Field 7
    Until: 23:00,0.2,        !- Field 9
    Until: 24:00,0,          !- Field 11
    For: Weekends,           !- Field 13
    Until: 07:00,0,          !- Field 14
    Until: 10:00,1,          !- Field 16
    Until: 19:00,0,          !- Field 18
    Until: 23:00,0.2,        !- Field 20
    Until: 24:00,0,          !- Field 22
    For: Holidays,           !- Field 24
    Until: 07:00,0,          !- Field 25
    Until: 10:00,1,          !- Field 27
    Until: 19:00,0,          !- Field 29
    Until: 23:00,0.2,        !- Field 31
    Until: 24:00,0,          !- Field 33
    For: WinterDesignDay AllOtherDays, !- Field 35
    Until: 24:00,0;          !- Field 36

! Schedule: Dwell_DomBath_Light

  Schedule:Compact,
    Dwell_DomBath_Light,     !- Name
    Fraction,                !- Schedule Type Limits Name
    Through: 31 Dec,         !- Field 1
    For: Weekdays SummerDesignDay, !- Field 2
    Until: 07:00,0,          !- Field 3
    Until: 10:00,1,          !- Field 5
    Until: 19:00,0,          !- Field 7
    Until: 23:00,1,          !- Field 9
    Until: 24:00,0,          !- Field 11
    For: Weekends,           !- Field 13
    Until: 07:00,0,          !- Field 14
    Until: 10:00,1,          !- Field 16
    Until: 19:00,0,          !- Field 18
    Until: 23:00,1,          !- Field 20
    Until: 24:00,0,          !- Field 22
    For: Holidays,           !- Field 24
    Until: 07:00,0,          !- Field 25
    Until: 10:00,1,          !- Field 27
    Until: 19:00,0,          !- Field 29
    Until: 23:00,1,          !- Field 31
    Until: 24:00,0,          !- Field 33
    For: WinterDesignDay AllOtherDays, !- Field 35
    Until: 24:00,0;          !- Field 36

! Schedule: Dwell_DomBath_Equip

  Schedule:Compact,
    Dwell_DomBath_Equip,     !- Name
    Fraction,                !- Schedule Type Limits Name
    Through: 31 Dec,         !- Field 1
    For: Weekdays SummerDesignDay, !- Field 2
    Until: 06:00,0.05997,    !- Field 3
    Until: 07:00,0.29498,    !- Field 5
    Until: 09:00,1,          !- Field 7
    Until: 10:00,0.29498,    !- Field 9
    Until: 18:00,0.05997,    !- Field 11
    Until: 19:00,0.52999,    !- Field 13
    Until: 21:00,1,          !- Field 15
    Until: 22:00,0.34198,    !- Field 17
    Until: 24:00,0.05997,    !- Field 19
    For: Weekends,           !- Field 21
    Until: 24:00,0.05997,    !- Field 22
    For: Holidays,           !- Field 24
    Until: 24:00,0.05997,    !- Field 25
    For: WinterDesignDay AllOtherDays, !- Field 27
    Until: 24:00,0;          !- Field 28

! Schedule: Dwell_DomCirculation_Occ

  Schedule:Compact,
    Dwell_DomCirculation_Occ,!- Name
    Fraction,                !- Schedule Type Limits Name
    Through: 31 Dec,         !- Field 1
    For: Weekdays SummerDesignDay, !- Field 2
    Until: 07:00,0,          !- Field 3
    Until: 10:00,1,          !- Field 5
    Until: 19:00,0,          !- Field 7
    Until: 23:00,0.2,        !- Field 9
    Until: 24:00,0,          !- Field 11
    For: Weekends,           !- Field 13
    Until: 07:00,0,          !- Field 14
    Until: 23:00,1,          !- Field 16
    Until: 24:00,0.3,        !- Field 18
    For: Holidays,           !- Field 20
    Until: 07:00,0,          !- Field 21
    Until: 23:00,1,          !- Field 23
    Until: 24:00,0.3,        !- Field 25
    For: WinterDesignDay AllOtherDays, !- Field 27
    Until: 24:00,0;          !- Field 28

! Schedule: Dwell_DomCirculation_Light

  Schedule:Compact,
    Dwell_DomCirculation_Light,  !- Name
    Fraction,                !- Schedule Type Limits Name
    Through: 31 Dec,         !- Field 1
    For: Weekdays SummerDesignDay, !- Field 2
    Until: 07:00,0,          !- Field 3
    Until: 10:00,1,          !- Field 5
    Until: 19:00,0,          !- Field 7
    Until: 23:00,1,          !- Field 9
    Until: 24:00,0,          !- Field 11
    For: Weekends,           !- Field 13
    Until: 07:00,0,          !- Field 14
    Until: 24:00,1,          !- Field 16
    For: Holidays,           !- Field 18
    Until: 07:00,0,          !- Field 19
    Until: 24:00,1,          !- Field 21
    For: WinterDesignDay AllOtherDays, !- Field 23
    Until: 24:00,0;          !- Field 24

! Schedule: Dwell_DomCirculation_Equip

  Schedule:Compact,
    Dwell_DomCirculation_Equip,  !- Name
    Fraction,                !- Schedule Type Limits Name
    Through: 31 Dec,         !- Field 1
    For: Weekdays SummerDesignDay, !- Field 2
    Until: 07:00,0.06368,    !- Field 3
    Until: 08:00,0.53184,    !- Field 5
    Until: 09:00,1,          !- Field 7
    Until: 10:00,0.53184,    !- Field 9
    Until: 17:00,0.06368,    !- Field 11
    Until: 18:00,0.29776,    !- Field 13
    Until: 19:00,0.53184,    !- Field 15
    Until: 20:00,0.76592,    !- Field 17
    Until: 22:00,1,          !- Field 19
    Until: 23:00,0.76592,    !- Field 21
    Until: 24:00,0.29776,    !- Field 23
    For: Weekends,           !- Field 25
    Until: 07:00,0.06368,    !- Field 26
    Until: 23:00,1,          !- Field 28
    Until: 24:00,0.34458,    !- Field 30
    For: Holidays,           !- Field 32
    Until: 07:00,0.06368,    !- Field 33
    Until: 23:00,1,          !- Field 35
    Until: 24:00,0.34458,    !- Field 37
    For: WinterDesignDay AllOtherDays, !- Field 39
    Until: 24:00,0;          !- Field 40

! Schedule: Dwell_DomCommonAreas_Occ

  Schedule:Compact,
    Dwell_DomCommonAreas_Occ,!- Name
    Fraction,                !- Schedule Type Limits Name
    Through: 31 Dec,         !- Field 1
    For: Weekdays SummerDesignDay, !- Field 2
    Until: 07:00,0,          !- Field 3
    Until: 08:00,0.5,        !- Field 5
    Until: 09:00,1,          !- Field 7
    Until: 10:00,0.5,        !- Field 9
    Until: 17:00,0,          !- Field 11
    Until: 18:00,0.25,       !- Field 13
    Until: 19:00,0.5,        !- Field 15
    Until: 20:00,0.75,       !- Field 17
    Until: 22:00,1,          !- Field 19
    Until: 23:00,0.75,       !- Field 21
    Until: 24:00,0.25,       !- Field 23
    For: Weekends,           !- Field 25
    Until: 09:00,0,          !- Field 26
    Until: 21:00,1,          !- Field 28
    Until: 24:00,0,          !- Field 30
    For: Holidays,           !- Field 32
    Until: 09:00,0,          !- Field 33
    Until: 21:00,1,          !- Field 35
    Until: 24:00,0,          !- Field 37
    For: WinterDesignDay AllOtherDays, !- Field 39
    Until: 24:00,0;          !- Field 40

! Schedule: TM59_Default_Light

  Schedule:Compact,
    TM59_Default_Light,      !- Name
    Fraction,                !- Schedule Type Limits Name
    Through: 31 Dec,         !- Field 1
    For: Weekdays SummerDesignDay Weekends, !- Field 2
    Until: 18:00,0,          !- Field 3
    Until: 23:00,1,          !- Field 5
    Until: 24:00,0,          !- Field 7
    For: WinterDesignDay AllOtherDays, !- Field 9
    Until: 24:00,0;          !- Field 10

! Schedule: TM59_Living_Occ

  SCHEDULE:COMPACT,
    TM59_Living_Occ,         !- Name
    Fraction,                !- Schedule Type Limits Name
    Through: 31 Dec,         !- Field 1
    For: WinterDesignDay,    !- Field 2
    Until: 24:00,0,          !- Field 3
    For: AllOtherDays,       !- Field 5
    Until: 09:00,0,          !- Field 6
    Until: 22:00,0.75,       !- Field 8
    Until: 24:00,0;          !- Field 10

! Schedule: Default clothing schedule (Northern hemisphere)

  Schedule:Compact,
    Default clothing schedule (Northern hemisphere),  !- Name
    Any Number,              !- Schedule Type Limits Name
    Through: 4/1,            !- Field 1
    For: AllDays,            !- Field 2
    Until: 24:00,1,          !- Field 3
    Through: 9/30,           !- Field 5
    For: AllDays,            !- Field 6
    Until: 24:00,.5,         !- Field 7
    Through: 12/31,          !- Field 9
    For: AllDays,            !- Field 10
    Until: 24:00,1;          !- Field 11

  WindowMaterial:Gas,
    1002,                    !- Name
    Air,                     !- Gas Type
    .013;                    !- Thickness {m}

  WindowMaterial:Gas,
    Half thickness 1002,     !- Name
    Air,                     !- Gas Type
    .0065;                   !- Thickness {m}

  WindowMaterial:Glazing,
    2,                       !- Name
    SpectralAverage,         !- Optical Data Type
    ,                        !- Window Glass Spectral Data Set Name
    .003,                    !- Thickness {m}
    .837,                    !- Solar Transmittance at Normal Incidence
    .075,                    !- Front Side Solar Reflectance at Normal Incidence
    .075,                    !- Back Side Solar Reflectance at Normal Incidence
    .898,                    !- Visible Transmittance at Normal Incidence
    .081,                    !- Front Side Visible Reflectance at Normal Incidence
    .081,                    !- Back Side Visible Reflectance at Normal Incidence
    .0,                      !- Infrared Transmittance at Normal Incidence
    .84,                     !- Front Side Infrared Hemispherical Emissivity
    .84,                     !- Back Side Infrared Hemispherical Emissivity
    .9,                      !- Conductivity {W/m-K}
    1;                       !- Dirt Correction Factor for Solar and Visible Transmittance

  WindowMaterial:Glazing,
    41,                      !- Name
    SpectralAverage,         !- Optical Data Type
    ,                        !- Window Glass Spectral Data Set Name
    .003,                    !- Thickness {m}
    .630,                    !- Solar Transmittance at Normal Incidence
    .220,                    !- Front Side Solar Reflectance at Normal Incidence
    .190,                    !- Back Side Solar Reflectance at Normal Incidence
    .850,                    !- Visible Transmittance at Normal Incidence
    .079,                    !- Front Side Visible Reflectance at Normal Incidence
    .056,                    !- Back Side Visible Reflectance at Normal Incidence
    .0,                      !- Infrared Transmittance at Normal Incidence
    .10,                     !- Front Side Infrared Hemispherical Emissivity
    .84,                     !- Back Side Infrared Hemispherical Emissivity
    .9,                      !- Conductivity {W/m-K}
    1;                       !- Dirt Correction Factor for Solar and Visible Transmittance

! Urea Formaldehyde Foam- thickness 0.0869

  Material,
    Urea Formaldehyde Foam_O.O869,  !- Name
    Rough,                   !- Roughness
    .0869,                   !- Thickness {m}
    0.04,                    !- Conductivity {W/m-K}
    10,                      !- Density {kg/m3}
    1400,                    !- Specific Heat {J/kg-K}
    0.9,                     !- Thermal Absorptance
    0.6,                     !- Solar Absorptance
    0.6;                     !- Visible Absorptance

! Cast Concrete- thickness 0.1

  Material,
    Cast Concrete_O.1,       !- Name
    Rough,                   !- Roughness
    .1,                      !- Thickness {m}
    1.13,                    !- Conductivity {W/m-K}
    2000,                    !- Density {kg/m3}
    1000,                    !- Specific Heat {J/kg-K}
    0.9,                     !- Thermal Absorptance
    0.6,                     !- Solar Absorptance
    0.6;                     !- Visible Absorptance

! Floor/Roof Screed- thickness 0.07

  Material,
    Floor/Roof Screed_O.O7,  !- Name
    Rough,                   !- Roughness
    .07,                     !- Thickness {m}
    0.41,                    !- Conductivity {W/m-K}
    1200,                    !- Density {kg/m3}
    840,                     !- Specific Heat {J/kg-K}
    0.9,                     !- Thermal Absorptance
    0.73,                    !- Solar Absorptance
    0.73;                    !- Visible Absorptance

! Timber Flooring- thickness 0.03

  Material,
    Timber Flooring_O.O3,    !- Name
    Rough,                   !- Roughness
    .03,                     !- Thickness {m}
    0.14,                    !- Conductivity {W/m-K}
    650,                     !- Density {kg/m3}
    1200,                    !- Specific Heat {J/kg-K}
    0.9,                     !- Thermal Absorptance
    0.78,                    !- Solar Absorptance
    0.78;                    !- Visible Absorptance

! Board insulation (Glass fiber board)- thickness 0.2483

  Material,
    Board insulation (Glass fiber board)_O.2483,  !- Name
    Rough,                   !- Roughness
    .2483,                   !- Thickness {m}
    0.036,                   !- Conductivity {W/m-K}
    160,                     !- Density {kg/m3}
    840,                     !- Specific Heat {J/kg-K}
    0.9,                     !- Thermal Absorptance
    0.7,                     !- Solar Absorptance
    0.7;                     !- Visible Absorptance

! Metal deck- thickness 0.01

  Material,
    Metal deck_O.O1,         !- Name
    Rough,                   !- Roughness
    .01,                     !- Thickness {m}
    45.28,                   !- Conductivity {W/m-K}
    7824,                    !- Density {kg/m3}
    500,                     !- Specific Heat {J/kg-K}
    0.9,                     !- Thermal Absorptance
    0.7,                     !- Solar Absorptance
    0.7;                     !- Visible Absorptance

! Gypsum Plasterboard- thickness 0.025

  Material,
    Gypsum Plasterboard_O.O25,  !- Name
    Rough,                   !- Roughness
    .025,                    !- Thickness {m}
    0.25,                    !- Conductivity {W/m-K}
    900,                     !- Density {kg/m3}
    1000,                    !- Specific Heat {J/kg-K}
    0.9,                     !- Thermal Absorptance
    0.5,                     !- Solar Absorptance
    0.5;                     !- Visible Absorptance

! 8 in. Concrete at R-0.0625/in (NW 145 lb/ft3 solid concrete)- thickness 0.2032

  Material,
    8 in. Concrete at R-O.O625/in (NW 145 lb/ft3 solid concrete)_O.2O32,  !- Name
    Rough,                   !- Roughness
    .2032,                   !- Thickness {m}
    2.3,                     !- Conductivity {W/m-K}
    2321.4,                  !- Density {kg/m3}
    837.36,                  !- Specific Heat {J/kg-K}
    0.9,                     !- Thermal Absorptance
    0.7,                     !- Solar Absorptance
    0.7;                     !- Visible Absorptance

! R-23 board Insulation (Glass fiber board)- thickness 0.1451

  Material,
    R-23 board Insulation (Glass fiber board)_O.1451,  !- Name
    Rough,                   !- Roughness
    .1451,                   !- Thickness {m}
    0.036,                   !- Conductivity {W/m-K}
    160,                     !- Density {kg/m3}
    840,                     !- Specific Heat {J/kg-K}
    0.9,                     !- Thermal Absorptance
    0.7,                     !- Solar Absorptance
    0.7;                     !- Visible Absorptance

! 0.5 in. (12.7 mm) gypsum board- thickness 0.0127

  Material,
    O.5 in. (12.7 mm) gypsum board_O.O127,  !- Name
    Rough,                   !- Roughness
    .0127,                   !- Thickness {m}
    0.16,                    !- Conductivity {W/m-K}
    640,                     !- Density {kg/m3}
    1150,                    !- Specific Heat {J/kg-K}
    0.9,                     !- Thermal Absorptance
    0.7,                     !- Solar Absorptance
    0.7;                     !- Visible Absorptance

! Painted Oak- thickness 0.035

  Material,
    Painted Oak_O.O35,       !- Name
    Rough,                   !- Roughness
    .035,                    !- Thickness {m}
    0.19,                    !- Conductivity {W/m-K}
    700,                     !- Density {kg/m3}
    2390,                    !- Specific Heat {J/kg-K}
    0.9,                     !- Thermal Absorptance
    0.5,                     !- Solar Absorptance
    0.5;                     !- Visible Absorptance

! Project ground floor

  Construction,
    Project ground floor,    !- Name
    Urea Formaldehyde Foam_O.O869,  !- Outside Layer
    Cast Concrete_O.1,       !- Layer 2
    Floor/Roof Screed_O.O7,  !- Layer 3
    Timber Flooring_O.O3;    !- Layer 4

! <Previous reversed>

  Construction,
    Project ground floor_Rev,!- Name
    Timber Flooring_O.O3,    !- Outside Layer
    Floor/Roof Screed_O.O7,  !- Layer 2
    Cast Concrete_O.1,       !- Layer 3
    Urea Formaldehyde Foam_O.O869;  !- Layer 4

! Copy of Roof, Ins Entirely above Deck, R-40 (7.0), U-0.025 (0.142)

  Construction,
    Copy of Roof Ins Entirely above Deck R-4O (7.O) U-O.O25 (O.142),  !- Name
    Board insulation (Glass fiber board)_O.2483,  !- Outside Layer
    Metal deck_O.O1;         !- Layer 2

! <Previous reversed>

  Construction,
    Copy of Roof Ins Entirely above Deck R-4O (7.O) U-O.O25 (O.142)_Rev,  !- Name
    Metal deck_O.O1,         !- Outside Layer
    Board insulation (Glass fiber board)_O.2483;  !- Layer 2

! Special material to represent an R-value for the next construction

  Material:NoMass,
    5_RVAL_2,                !- Name
    Rough,                   !- Roughness
    .15,                     !- Thermal Resistance {m2-K/W}
    0.9,                     !- Thermal Absorptance
    0.7,                     !- Solar Absorptance
    0.7;                     !- Visible Absorptance

! Project partition

  Construction,
    Project partition,       !- Name
    Gypsum Plasterboard_O.O25,  !- Outside Layer
    5_RVAL_2,                !- Layer 2
    Gypsum Plasterboard_O.O25;  !- Layer 3

! Special material to represent an R-value for the next construction

  Material:NoMass,
    6_RVAL_2,                !- Name
    Rough,                   !- Roughness
    .15,                     !- Thermal Resistance {m2-K/W}
    0.9,                     !- Thermal Absorptance
    0.7,                     !- Solar Absorptance
    0.7;                     !- Visible Absorptance

! <Previous reversed>

  Construction,
    Project partition_Rev,   !- Name
    Gypsum Plasterboard_O.O25,  !- Outside Layer
    6_RVAL_2,                !- Layer 2
    Gypsum Plasterboard_O.O25;  !- Layer 3

! Copy of Wall, Mass, R-23.0 (4.05), U-0.041 (0.23)

  Construction,
    Copy of Wall Mass R-23.O (4.O5) U-O.O41 (O.23),  !- Name
    8 in. Concrete at R-O.O625/in (NW 145 lb/ft3 solid concrete)_O.2O32,  !- Outside Layer
    R-23 board Insulation (Glass fiber board)_O.1451,  !- Layer 2
    O.5 in. (12.7 mm) gypsum board_O.O127;  !- Layer 3

! <Previous reversed>

  Construction,
    Copy of Wall Mass R-23.O (4.O5) U-O.O41 (O.23)_Rev,  !- Name
    O.5 in. (12.7 mm) gypsum board_O.O127,  !- Outside Layer
    R-23 board Insulation (Glass fiber board)_O.1451,  !- Layer 2
    8 in. Concrete at R-O.O625/in (NW 145 lb/ft3 solid concrete)_O.2O32;  !- Layer 3

! Project external door

  Construction,
    Project external door,   !- Name
    Painted Oak_O.O35;       !- Outside Layer

! <Previous reversed>

  Construction,
    Project external door_Rev,  !- Name
    Painted Oak_O.O35;       !- Outside Layer

  Construction,
    1001,                    !- Name
    2,                       !- Outside Layer
    1002,                    !- Layer 2
    2,                       !- Layer 3
    1002,                    !- Layer 4
    41;                      !- Layer 5

  HeatBalanceAlgorithm,ConductionTransferFunction,2000,0.00000001,1000;

  ShadowCalculation,
    PolygonClipping,         !- Shading Calculation Method
    Periodic,                !- Shading Calculation Update Frequency Method
    20,                      !- Shading Calculation Update Frequency
    15000,                   !- Maximum Figures in Shadow Overlap Calculations
    SutherlandHodgman,       !- Polygon Clipping Algorithm
    ;                        !- Pixel Counting Resolution

  SurfaceConvectionAlgorithm:Inside,TARP;

  SurfaceConvectionAlgorithm:Outside,DOE-2;

  ZoneCapacitanceMultiplier:ResearchSpecial,
    All,                     !- Name
    ,                        !- Zone or ZoneList Name
    1,                       !- Temperature Capacity Multiplier
    1.0,                     !- Humidity Capacity Multiplier
    1.0,                     !- Carbon Dioxide Capacity Multiplier
    1.0;                     !- Generic Contaminant Capacity Multiplier

  Building,
    Building,                !- Name
    0,                       !- North Axis {deg}
    Suburbs,                 !- Terrain
    .04,                     !- Loads Convergence Tolerance Value {W}
    .4,                      !- Temperature Convergence Tolerance Value {deltaC}
    FullExterior,            !- Solar Distribution
    25,                      !- Maximum Number of Warmup Days
    6;                       !- Minimum Number of Warmup Days

  GlobalGeometryRules,
    LowerLeftCorner,         !- Starting Vertex Position
    CounterClockWise,        !- Vertex Entry Direction
    Relative;                !- Coordinate System

! Block 1 - LIVING ROOM

  Zone,
    Block1:LIVINGROOM,       !- Name
    0,                       !- Direction of Relative North {deg}
    0,                       !- X Origin {m}
    0,                       !- Y Origin {m}
    0,                       !- Z Origin {m}
    1,                       !- Type
    1,                       !- Multiplier
    ,                        !- Ceiling Height {m}
    101.8533,                !- Volume {m3}
    23.3127,                 !- Floor Area {m2}
    TARP,                    !- Zone Inside Convection Algorithm
    ,                        !- Zone Outside Convection Algorithm
    Yes;                     !- Part of Total Floor Area

  PEOPLE,
    People Block1:LIVINGROOM,!- Name
    Block1:LIVINGROOM,       !- Zone or ZoneList or Space or SpaceList Name
    TM59_Living_Occ,         !- Number of People Schedule Name
    People/Area,             !- Number of People Calculation Method
    ,                        !- Number of People
    .0188,                   !- People per Floor Area {person/m2}
    ,                        !- Floor Area per Person {m2/person}
    .3,                      !- Fraction Radiant
    AutoCalculate,           !- Sensible Heat Fraction
    Activity Schedule 91,    !- Activity Level Schedule Name
    .0000000382,             !- Carbon Dioxide Generation Rate {m3/s-W}
    No,                      !- Enable ASHRAE 55 Comfort Warnings
    EnclosureAveraged,       !- Mean Radiant Temperature Calculation Type
    ,                        !- Surface Name/Angle Factor List Name
    Work efficiency,         !- Work Efficiency Schedule Name
    ClothingInsulationSchedule,  !- Clothing Insulation Calculation Method
    ,                        !- Clothing Insulation Calculation Method Schedule Name
    Default clothing schedule (Northern hemisphere),  !- Clothing Insulation Schedule Name
    AirVelocitySchedule;     !- Air Velocity Schedule Name

  Schedule:Compact,
    Activity Schedule 91,    !- Name
    Any Number,              !- Schedule Type Limits Name
    Through: 12/31,          !- Field 1
    For: AllDays,            !- Field 2
    Until: 24:00,130;        !- Field 3

  Lights,
    Block1:LIVINGROOM,       !- Name
    Block1:LIVINGROOM,       !- Zone or ZoneList or Space or SpaceList Name
    TM59_Default_Light,      !- Schedule Name
    Watts/Area,              !- Design Level Calculation Method
    ,                        !- Lighting Level {W}
    5,                       !- Watts per Floor Area {W/m2}
    ,                        !- Watts per Person {W/person}
    0,                       !- Return Air Fraction
    .42,                     !- Fraction Radiant
    .18,                     !- Fraction Visible
    1,                       !- Fraction Replaceable
    ;                        !- End-Use Subcategory

   ! DHW 0

  WaterUse:Equipment,
    DHW Block1:LIVINGROOM,   !- Name
    DHW Block1:LIVINGROOM,   !- End-Use Subcategory
    2.86012291666667E-07,    !- Peak Flow Rate {m3/s}
    Dwell_DomCommonAreas_Occ,!- Flow Rate Fraction Schedule Name
    DHW Supply Temperature Block1:LIVINGROOM,  !- Target Temperature Schedule Name
    DHW Supply Temperature Block1:LIVINGROOM,  !- Hot Water Supply Temperature Schedule Name
    DHW Mains Temperature Block1:LIVINGROOM,  !- Cold Water Supply Temperature Schedule Name
    Block1:LIVINGROOM,       !- Zone Name
    ,                        !- Sensible Fraction Schedule Name
    ;                        !- Latent Fraction Schedule Name

  Schedule:Compact,
    DHW Supply Temperature Block1:LIVINGROOM,  !- Name
    Temperature,             !- Schedule Type Limits Name
    Through: 12/31,          !- Field 1
    For: AllDays,            !- Field 2
    Until: 24:00,65;         !- Field 3

  Schedule:Compact,
    DHW Mains Temperature Block1:LIVINGROOM,  !- Name
    Temperature,             !- Schedule Type Limits Name
    Through: 12/31,          !- Field 1
    For: AllDays,            !- Field 2
    Until: 24:00,10;         !- Field 3

  ZoneInfiltration:DesignFlowRate,
    Block1:LIVINGROOM Infiltration,  !- Name
    Block1:LIVINGROOM,       !- Zone or ZoneList or Space or SpaceList Name
    On 24/7,                 !- Schedule Name
    Flow/zone,               !- Design Flow Rate Calculation Method
    .019805,                 !- Design Flow Rate {m3/s}
    ,                        !- Flow Rate per Floor Area {m3/s-m2}
    ,                        !- Flow Rate per Exterior Surface Area {m3/s-m2}
    ,                        !- Air Changes per Hour {1/hr}
    1,                       !- Constant Term Coefficient
    0,                       !- Temperature Term Coefficient
    0,                       !- Velocity Term Coefficient
    0;                       !- Velocity Squared Term Coefficient

   ! Block 1, LIVING ROOM, Ground floor - 30.101 m2 (Ground), Surface Area: 13.633m2

  BuildingSurface:Detailed,
    Block1:LIVINGROOM_GroundFloor_0_0_0,  !- Name
    Floor,                   !- Surface Type
    Project ground floor,    !- Construction Name
    Block1:LIVINGROOM,       !- Zone Name
    ,                        !- Space Name
    Ground,                  !- Outside Boundary Condition
    ,                        !- Outside Boundary Condition Object
    NoSun,                   !- Sun Exposure
    NoWind,                  !- Wind Exposure
    AutoCalculate,           !- View Factor to Ground
    4,                       !- Number of Vertices
    .0344588046,-8.5046955474,0,  !- X,Y,Z ==> Vertex 1 {m}
    -2.3605411954,-8.5046955474,0,  !- X,Y,Z ==> Vertex 2 {m}
    -2.3605411954,-2.8125955474,0,  !- X,Y,Z ==> Vertex 3 {m}
    .0344588046,-2.8125955474,0;  !- X,Y,Z ==> Vertex 4 {m}

   ! Block 1, LIVING ROOM, Ground floor - 30.101 m2 (Ground), Surface Area: 0.545m2

  BuildingSurface:Detailed,
    Block1:LIVINGROOM_GroundFloor_0_0_1,  !- Name
    Floor,                   !- Surface Type
    Project ground floor,    !- Construction Name
    Block1:LIVINGROOM,       !- Zone Name
    ,                        !- Space Name
    Ground,                  !- Outside Boundary Condition
    ,                        !- Outside Boundary Condition Object
    NoSun,                   !- Sun Exposure
    NoWind,                  !- Wind Exposure
    AutoCalculate,           !- View Factor to Ground
    4,                       !- Number of Vertices
    -1.7965411954,-.8585955474,0,  !- X,Y,Z ==> Vertex 1 {m}
    -2.3605411954,-.8585955474,0,  !- X,Y,Z ==> Vertex 2 {m}
    -2.3605411954,.1084044526,0,  !- X,Y,Z ==> Vertex 3 {m}
    -1.7965411954,.1084044526,0;  !- X,Y,Z ==> Vertex 4 {m}

   ! Block 1, LIVING ROOM, Ground floor - 30.101 m2 (Ground), Surface Area: 3.993m2

  BuildingSurface:Detailed,
    Block1:LIVINGROOM_GroundFloor_0_0_2,  !- Name
    Floor,                   !- Surface Type
    Project ground floor,    !- Construction Name
    Block1:LIVINGROOM,       !- Zone Name
    ,                        !- Space Name
    Ground,                  !- Outside Boundary Condition
    ,                        !- Outside Boundary Condition Object
    NoSun,                   !- Sun Exposure
    NoWind,                  !- Wind Exposure
    AutoCalculate,           !- View Factor to Ground
    4,                       !- Number of Vertices
    -3.7456411954,-8.5046955474,0,  !- X,Y,Z ==> Vertex 1 {m}
    -4.6136411954,-8.5046955474,0,  !- X,Y,Z ==> Vertex 2 {m}
    -4.6136411954,-3.9045955474,0,  !- X,Y,Z ==> Vertex 3 {m}
    -3.7456411954,-3.9045955474,0;  !- X,Y,Z ==> Vertex 4 {m}

   ! Block 1, LIVING ROOM, Ground floor - 30.101 m2 (Ground), Surface Area: 11.930m2

  BuildingSurface:Detailed,
    Block1:LIVINGROOM_GroundFloor_0_0_3,  !- Name
    Floor,                   !- Surface Type
    Project ground floor,    !- Construction Name
    Block1:LIVINGROOM,       !- Zone Name
    ,                        !- Space Name
    Ground,                  !- Outside Boundary Condition
    ,                        !- Outside Boundary Condition Object
    NoSun,                   !- Sun Exposure
    NoWind,                  !- Wind Exposure
    AutoCalculate,           !- View Factor to Ground
    4,                       !- Number of Vertices
    -2.3605411954,-8.5046955474,0,  !- X,Y,Z ==> Vertex 1 {m}
    -3.7456411954,-8.5046955474,0,  !- X,Y,Z ==> Vertex 2 {m}
    -3.7456411954,.1084044526,0,  !- X,Y,Z ==> Vertex 3 {m}
    -2.3605411954,.1084044526,0;  !- X,Y,Z ==> Vertex 4 {m}

   ! Block 1, LIVING ROOM, Roof - 30.101 m2, Surface Area: 2.615m2

  BuildingSurface:Detailed,
    Block1:LIVINGROOM_Roof_1_0_0,  !- Name
    Roof,                    !- Surface Type
    Copy of Roof Ins Entirely above Deck R-4O (7.O) U-O.O25 (O.142),  !- Construction Name
    Block1:LIVINGROOM,       !- Zone Name
    ,                        !- Space Name
    Outdoors,                !- Outside Boundary Condition
    ,                        !- Outside Boundary Condition Object
    SunExposed,              !- Sun Exposure
    WindExposed,             !- Wind Exposure
    AutoCalculate,           !- View Factor to Ground
    4,                       !- Number of Vertices
    -2.3605411954,-3.9045955474,4.369,  !- X,Y,Z ==> Vertex 1 {m}
    .0344588046,-3.9045955474,4.369,  !- X,Y,Z ==> Vertex 2 {m}
    .0344588046,-2.8125955474,4.369,  !- X,Y,Z ==> Vertex 3 {m}
    -2.3605411954,-2.8125955474,4.369;  !- X,Y,Z ==> Vertex 4 {m}

   ! Block 1, LIVING ROOM, Roof - 30.101 m2, Surface Area: 4.219m2

  BuildingSurface:Detailed,
    Block1:LIVINGROOM_Roof_1_0_1,  !- Name
    Roof,                    !- Surface Type
    Copy of Roof Ins Entirely above Deck R-4O (7.O) U-O.O25 (O.142),  !- Construction Name
    Block1:LIVINGROOM,       !- Zone Name
    ,                        !- Space Name
    Outdoors,                !- Outside Boundary Condition
    ,                        !- Outside Boundary Condition Object
    SunExposed,              !- Sun Exposure
    WindExposed,             !- Wind Exposure
    AutoCalculate,           !- View Factor to Ground
    4,                       !- Number of Vertices
    -3.7456411954,-3.9045955474,4.369,  !- X,Y,Z ==> Vertex 1 {m}
    -2.3605411954,-3.9045955474,4.369,  !- X,Y,Z ==> Vertex 2 {m}
    -2.3605411954,-.8585955474,4.369,  !- X,Y,Z ==> Vertex 3 {m}
    -3.7456411954,-.8585955474,4.369;  !- X,Y,Z ==> Vertex 4 {m}

   ! Block 1, LIVING ROOM, Roof - 30.101 m2, Surface Area: 1.885m2

  BuildingSurface:Detailed,
    Block1:LIVINGROOM_Roof_1_0_2,  !- Name
    Roof,                    !- Surface Type
    Copy of Roof Ins Entirely above Deck R-4O (7.O) U-O.O25 (O.142),  !- Construction Name
    Block1:LIVINGROOM,       !- Zone Name
    ,                        !- Space Name
    Outdoors,                !- Outside Boundary Condition
    ,                        !- Outside Boundary Condition Object
    SunExposed,              !- Sun Exposure
    WindExposed,             !- Wind Exposure
    AutoCalculate,           !- View Factor to Ground
    4,                       !- Number of Vertices
    -3.7456411954,-.8585955474,4.369,  !- X,Y,Z ==> Vertex 1 {m}
    -1.7965411954,-.8585955474,4.369,  !- X,Y,Z ==> Vertex 2 {m}
    -1.7965411954,.1084044526,4.369,  !- X,Y,Z ==> Vertex 3 {m}
    -3.7456411954,.1084044526,4.369;  !- X,Y,Z ==> Vertex 4 {m}

   ! Block 1, LIVING ROOM, Roof - 30.101 m2, Surface Area: 21.382m2

  BuildingSurface:Detailed,
    Block1:LIVINGROOM_Roof_1_0_3,  !- Name
    Roof,                    !- Surface Type
    Copy of Roof Ins Entirely above Deck R-4O (7.O) U-O.O25 (O.142),  !- Construction Name
    Block1:LIVINGROOM,       !- Zone Name
    ,                        !- Space Name
    Outdoors,                !- Outside Boundary Condition
    ,                        !- Outside Boundary Condition Object
    SunExposed,              !- Sun Exposure
    WindExposed,             !- Wind Exposure
    AutoCalculate,           !- View Factor to Ground
    4,                       !- Number of Vertices
    -4.6136411954,-8.5046955474,4.369,  !- X,Y,Z ==> Vertex 1 {m}
    .0344588046,-8.5046955474,4.369,  !- X,Y,Z ==> Vertex 2 {m}
    .0344588046,-3.9045955474,4.369,  !- X,Y,Z ==> Vertex 3 {m}
    -4.6136411954,-3.9045955474,4.369;  !- X,Y,Z ==> Vertex 4 {m}

   ! Block 1, LIVING ROOM, Partition - 8.537 m2 (Block 1, BATHROOM), Surface Area: 8.537

  BuildingSurface:Detailed,
    Block1:LIVINGROOM_Partition_2_0_0,  !- Name
    Wall,                    !- Surface Type
    Project partition,       !- Construction Name
    Block1:LIVINGROOM,       !- Zone Name
    ,                        !- Space Name
    Surface,                 !- Outside Boundary Condition
    Block1:BATHROOM_Partition_6_0_10000,  !- Outside Boundary Condition Object
    NoSun,                   !- Sun Exposure
    NoWind,                  !- Wind Exposure
    0,                       !- View Factor to Ground
    4,                       !- Number of Vertices
    -2.3605411954,-2.81259555,0,  !- X,Y,Z ==> Vertex 1 {m}
    -2.3605411954,-.85859555,0,  !- X,Y,Z ==> Vertex 2 {m}
    -2.3605411954,-.85859555,4.369,  !- X,Y,Z ==> Vertex 3 {m}
    -2.3605411954,-2.81259555,4.369;  !- X,Y,Z ==> Vertex 4 {m}

   ! Block 1, LIVING ROOM, Partition - 8.537 m2 (Block 1, BATHROOM), Surface Area: 8.537 <Other side>

  BuildingSurface:Detailed,
    Block1:BATHROOM_Partition_6_0_10000,  !- Name
    Wall,                    !- Surface Type
    Project partition_Rev,   !- Construction Name
    Block1:BATHROOM,         !- Zone Name
    ,                        !- Space Name
    Surface,                 !- Outside Boundary Condition
    Block1:LIVINGROOM_Partition_2_0_0,  !- Outside Boundary Condition Object
    NoSun,                   !- Sun Exposure
    NoWind,                  !- Wind Exposure
    0,                       !- View Factor to Ground
    4,                       !- Number of Vertices
    -2.3605411954,-.85859555,0,  !- X,Y,Z ==> Vertex 1 {m}
    -2.3605411954,-2.81259555,0,  !- X,Y,Z ==> Vertex 2 {m}
    -2.3605411954,-2.81259555,4.369,  !- X,Y,Z ==> Vertex 3 {m}
    -2.3605411954,-.85859555,4.369;  !- X,Y,Z ==> Vertex 4 {m}

   ! Block 1, LIVING ROOM, Partition - 2.464 m2 (Block 1, BATHROOM), Surface Area: 2.4641

  BuildingSurface:Detailed,
    Block1:LIVINGROOM_Partition_3_0_0,  !- Name
    Wall,                    !- Surface Type
    Project partition,       !- Construction Name
    Block1:LIVINGROOM,       !- Zone Name
    ,                        !- Space Name
    Surface,                 !- Outside Boundary Condition
    Block1:BATHROOM_Partition_5_0_10001,  !- Outside Boundary Condition Object
    NoSun,                   !- Sun Exposure
    NoWind,                  !- Wind Exposure
    0,                       !- View Factor to Ground
    4,                       !- Number of Vertices
    -2.3605412,-.8585955474,0,  !- X,Y,Z ==> Vertex 1 {m}
    -1.7965412,-.8585955474,0,  !- X,Y,Z ==> Vertex 2 {m}
    -1.7965412,-.8585955474,4.369,  !- X,Y,Z ==> Vertex 3 {m}
    -2.3605412,-.8585955474,4.369;  !- X,Y,Z ==> Vertex 4 {m}

   ! Block 1, LIVING ROOM, Partition - 2.464 m2 (Block 1, BATHROOM), Surface Area: 2.4641 <Other side>

  BuildingSurface:Detailed,
    Block1:BATHROOM_Partition_5_0_10001,  !- Name
    Wall,                    !- Surface Type
    Project partition_Rev,   !- Construction Name
    Block1:BATHROOM,         !- Zone Name
    ,                        !- Space Name
    Surface,                 !- Outside Boundary Condition
    Block1:LIVINGROOM_Partition_3_0_0,  !- Outside Boundary Condition Object
    NoSun,                   !- Sun Exposure
    NoWind,                  !- Wind Exposure
    0,                       !- View Factor to Ground
    4,                       !- Number of Vertices
    -1.7965412,-.8585955474,0,  !- X,Y,Z ==> Vertex 1 {m}
    -2.3605412,-.8585955474,0,  !- X,Y,Z ==> Vertex 2 {m}
    -2.3605412,-.8585955474,4.369,  !- X,Y,Z ==> Vertex 3 {m}
    -1.7965412,-.8585955474,4.369;  !- X,Y,Z ==> Vertex 4 {m}

   ! Block 1, LIVING ROOM, Partition - 4.225 m2 (Block 1, BATHROOM), Surface Area: 4.2248

  BuildingSurface:Detailed,
    Block1:LIVINGROOM_Partition_4_0_0,  !- Name
    Wall,                    !- Surface Type
    Project partition,       !- Construction Name
    Block1:LIVINGROOM,       !- Zone Name
    ,                        !- Space Name
    Surface,                 !- Outside Boundary Condition
    Block1:BATHROOM_Partition_4_0_10002,  !- Outside Boundary Condition Object
    NoSun,                   !- Sun Exposure
    NoWind,                  !- Wind Exposure
    0,                       !- View Factor to Ground
    4,                       !- Number of Vertices
    -1.7965411954,-.85859555,0,  !- X,Y,Z ==> Vertex 1 {m}
    -1.7965411954,.10840445,0,  !- X,Y,Z ==> Vertex 2 {m}
    -1.7965411954,.10840445,4.369,  !- X,Y,Z ==> Vertex 3 {m}
    -1.7965411954,-.85859555,4.369;  !- X,Y,Z ==> Vertex 4 {m}

   ! Block 1, LIVING ROOM, Partition - 4.225 m2 (Block 1, BATHROOM), Surface Area: 4.2248 <Other side>

  BuildingSurface:Detailed,
    Block1:BATHROOM_Partition_4_0_10002,  !- Name
    Wall,                    !- Surface Type
    Project partition_Rev,   !- Construction Name
    Block1:BATHROOM,         !- Zone Name
    ,                        !- Space Name
    Surface,                 !- Outside Boundary Condition
    Block1:LIVINGROOM_Partition_4_0_0,  !- Outside Boundary Condition Object
    NoSun,                   !- Sun Exposure
    NoWind,                  !- Wind Exposure
    0,                       !- View Factor to Ground
    4,                       !- Number of Vertices
    -1.7965411954,.10840445,0,  !- X,Y,Z ==> Vertex 1 {m}
    -1.7965411954,-.85859555,0,  !- X,Y,Z ==> Vertex 2 {m}
    -1.7965411954,-.85859555,4.369,  !- X,Y,Z ==> Vertex 3 {m}
    -1.7965411954,.10840445,4.369;  !- X,Y,Z ==> Vertex 4 {m}

   ! Block 1, LIVING ROOM, Wall - 8.516 m2 - 0.0  , Surface Area: 8.516m2

  BuildingSurface:Detailed,
    Block1:LIVINGROOM_Wall_5_0_0,  !- Name
    Wall,                    !- Surface Type
    Copy of Wall Mass R-23.O (4.O5) U-O.O41 (O.23),  !- Construction Name
    Block1:LIVINGROOM,       !- Zone Name
    ,                        !- Space Name
    Outdoors,                !- Outside Boundary Condition
    ,                        !- Outside Boundary Condition Object
    SunExposed,              !- Sun Exposure
    WindExposed,             !- Wind Exposure
    AutoCalculate,           !- View Factor to Ground
    4,                       !- Number of Vertices
    -1.7965411954,.1084044526,0,  !- X,Y,Z ==> Vertex 1 {m}
    -3.7456411954,.1084044526,0,  !- X,Y,Z ==> Vertex 2 {m}
    -3.7456411954,.1084044526,4.369,  !- X,Y,Z ==> Vertex 3 {m}
    -1.7965411954,.1084044526,4.369;  !- X,Y,Z ==> Vertex 4 {m}

      ! Door, 1.951m2

  FenestrationSurface:Detailed,
    Block1:LIVINGROOM_Wall_5_0_0_0_0_0_Door,  !- Name
    Door,                    !- Surface Type
    Project external door,   !- Construction Name
    Block1:LIVINGROOM_Wall_5_0_0,  !- Building Surface Name
    ,                        !- Outside Boundary Condition Object
    AutoCalculate,           !- View Factor to Ground
    ,                        !- Frame and Divider Name
    1,                       !- Multiplier
    4,                       !- Number of Vertices
    -2.72601374,.1084044526,.002,  !- X,Y,Z ==> Vertex 1 {m}
    -3.64364119,.1084044526,.002,  !- X,Y,Z ==> Vertex 2 {m}
    -3.64364119,.1084044526,2.12761813,  !- X,Y,Z ==> Vertex 3 {m}
    -2.72601374,.1084044526,2.12761813;  !- X,Y,Z ==> Vertex 4 {m}

   ! Block 1, LIVING ROOM, Partition - 17.533 m2 (Block 1, CLOSET), Surface Area: 17.5328

  BuildingSurface:Detailed,
    Block1:LIVINGROOM_Partition_6_0_0,  !- Name
    Wall,                    !- Surface Type
    Project partition,       !- Construction Name
    Block1:LIVINGROOM,       !- Zone Name
    ,                        !- Space Name
    Surface,                 !- Outside Boundary Condition
    Block1:CLOSET_Partition_2_0_10003,  !- Outside Boundary Condition Object
    NoSun,                   !- Sun Exposure
    NoWind,                  !- Wind Exposure
    0,                       !- View Factor to Ground
    4,                       !- Number of Vertices
    -3.7456411954,.10840445,0,  !- X,Y,Z ==> Vertex 1 {m}
    -3.7456411954,-3.90459555,0,  !- X,Y,Z ==> Vertex 2 {m}
    -3.7456411954,-3.90459555,4.369,  !- X,Y,Z ==> Vertex 3 {m}
    -3.7456411954,.10840445,4.369;  !- X,Y,Z ==> Vertex 4 {m}

   ! Block 1, LIVING ROOM, Partition - 17.533 m2 (Block 1, CLOSET), Surface Area: 17.5328 <Other side>

  BuildingSurface:Detailed,
    Block1:CLOSET_Partition_2_0_10003,  !- Name
    Wall,                    !- Surface Type
    Project partition_Rev,   !- Construction Name
    Block1:CLOSET,           !- Zone Name
    ,                        !- Space Name
    Surface,                 !- Outside Boundary Condition
    Block1:LIVINGROOM_Partition_6_0_0,  !- Outside Boundary Condition Object
    NoSun,                   !- Sun Exposure
    NoWind,                  !- Wind Exposure
    0,                       !- View Factor to Ground
    4,                       !- Number of Vertices
    -3.7456411954,-3.90459555,0,  !- X,Y,Z ==> Vertex 1 {m}
    -3.7456411954,.10840445,0,  !- X,Y,Z ==> Vertex 2 {m}
    -3.7456411954,.10840445,4.369,  !- X,Y,Z ==> Vertex 3 {m}
    -3.7456411954,-3.90459555,4.369;  !- X,Y,Z ==> Vertex 4 {m}

   ! Block 1, LIVING ROOM, Partition - 3.792 m2 (Block 1, CLOSET), Surface Area: 3.7923

  BuildingSurface:Detailed,
    Block1:LIVINGROOM_Partition_7_0_0,  !- Name
    Wall,                    !- Surface Type
    Project partition,       !- Construction Name
    Block1:LIVINGROOM,       !- Zone Name
    ,                        !- Space Name
    Surface,                 !- Outside Boundary Condition
    Block1:CLOSET_Partition_5_0_10004,  !- Outside Boundary Condition Object
    NoSun,                   !- Sun Exposure
    NoWind,                  !- Wind Exposure
    0,                       !- View Factor to Ground
    4,                       !- Number of Vertices
    -3.7456412,-3.9045955474,0,  !- X,Y,Z ==> Vertex 1 {m}
    -4.6136412,-3.9045955474,0,  !- X,Y,Z ==> Vertex 2 {m}
    -4.6136412,-3.9045955474,4.369,  !- X,Y,Z ==> Vertex 3 {m}
    -3.7456412,-3.9045955474,4.369;  !- X,Y,Z ==> Vertex 4 {m}

   ! Block 1, LIVING ROOM, Partition - 3.792 m2 (Block 1, CLOSET), Surface Area: 3.7923 <Other side>

  BuildingSurface:Detailed,
    Block1:CLOSET_Partition_5_0_10004,  !- Name
    Wall,                    !- Surface Type
    Project partition_Rev,   !- Construction Name
    Block1:CLOSET,           !- Zone Name
    ,                        !- Space Name
    Surface,                 !- Outside Boundary Condition
    Block1:LIVINGROOM_Partition_7_0_0,  !- Outside Boundary Condition Object
    NoSun,                   !- Sun Exposure
    NoWind,                  !- Wind Exposure
    0,                       !- View Factor to Ground
    4,                       !- Number of Vertices
    -4.6136412,-3.9045955474,0,  !- X,Y,Z ==> Vertex 1 {m}
    -3.7456412,-3.9045955474,0,  !- X,Y,Z ==> Vertex 2 {m}
    -3.7456412,-3.9045955474,4.369,  !- X,Y,Z ==> Vertex 3 {m}
    -4.6136412,-3.9045955474,4.369;  !- X,Y,Z ==> Vertex 4 {m}

   ! Block 1, LIVING ROOM, Wall - 20.098 m2 - 270.0  , Surface Area: 20.098m2

  BuildingSurface:Detailed,
    Block1:LIVINGROOM_Wall_8_0_0,  !- Name
    Wall,                    !- Surface Type
    Copy of Wall Mass R-23.O (4.O5) U-O.O41 (O.23),  !- Construction Name
    Block1:LIVINGROOM,       !- Zone Name
    ,                        !- Space Name
    Outdoors,                !- Outside Boundary Condition
    ,                        !- Outside Boundary Condition Object
    SunExposed,              !- Sun Exposure
    WindExposed,             !- Wind Exposure
    AutoCalculate,           !- View Factor to Ground
    4,                       !- Number of Vertices
    -4.6136411954,-3.9045955474,0,  !- X,Y,Z ==> Vertex 1 {m}
    -4.6136411954,-8.5046955474,0,  !- X,Y,Z ==> Vertex 2 {m}
    -4.6136411954,-8.5046955474,4.369,  !- X,Y,Z ==> Vertex 3 {m}
    -4.6136411954,-3.9045955474,4.369;  !- X,Y,Z ==> Vertex 4 {m}

   ! Block 1, LIVING ROOM, Wall - 20.308 m2 - 180.0  , Surface Area: 20.308m2

  BuildingSurface:Detailed,
    Block1:LIVINGROOM_Wall_9_0_0,  !- Name
    Wall,                    !- Surface Type
    Copy of Wall Mass R-23.O (4.O5) U-O.O41 (O.23),  !- Construction Name
    Block1:LIVINGROOM,       !- Zone Name
    ,                        !- Space Name
    Outdoors,                !- Outside Boundary Condition
    ,                        !- Outside Boundary Condition Object
    SunExposed,              !- Sun Exposure
    WindExposed,             !- Wind Exposure
    AutoCalculate,           !- View Factor to Ground
    4,                       !- Number of Vertices
    -4.6136411954,-8.5046955474,0,  !- X,Y,Z ==> Vertex 1 {m}
    .0344588046,-8.5046955474,0,  !- X,Y,Z ==> Vertex 2 {m}
    .0344588046,-8.5046955474,4.369,  !- X,Y,Z ==> Vertex 3 {m}
    -4.6136411954,-8.5046955474,4.369;  !- X,Y,Z ==> Vertex 4 {m}

      ! Window, 3.779m2

  FenestrationSurface:Detailed,
    Block1:LIVINGROOM_Wall_9_0_0_0_0_0_Win,  !- Name
    Window,                  !- Surface Type
    1001,                    !- Construction Name
    Block1:LIVINGROOM_Wall_9_0_0,  !- Building Surface Name
    ,                        !- Outside Boundary Condition Object
    AutoCalculate,           !- View Factor to Ground
    1,                       !- Frame and Divider Name
    1,                       !- Multiplier
    4,                       !- Number of Vertices
    -3.3056412,-8.5046955474,.8,  !- X,Y,Z ==> Vertex 1 {m}
    -.6426412,-8.5046955474,.8,  !- X,Y,Z ==> Vertex 2 {m}
    -.6426412,-8.5046955474,2.219,  !- X,Y,Z ==> Vertex 3 {m}
    -3.3056412,-8.5046955474,2.219;  !- X,Y,Z ==> Vertex 4 {m}

   ! Block 1, LIVING ROOM, Wall - 24.869 m2 - 90.0  , Surface Area: 24.869m2

  BuildingSurface:Detailed,
    Block1:LIVINGROOM_Wall_10_0_0,  !- Name
    Wall,                    !- Surface Type
    Copy of Wall Mass R-23.O (4.O5) U-O.O41 (O.23),  !- Construction Name
    Block1:LIVINGROOM,       !- Zone Name
    ,                        !- Space Name
    Outdoors,                !- Outside Boundary Condition
    ,                        !- Outside Boundary Condition Object
    SunExposed,              !- Sun Exposure
    WindExposed,             !- Wind Exposure
    AutoCalculate,           !- View Factor to Ground
    4,                       !- Number of Vertices
    .0344588046,-8.5046955474,0,  !- X,Y,Z ==> Vertex 1 {m}
    .0344588046,-2.8125955474,0,  !- X,Y,Z ==> Vertex 2 {m}
    .0344588046,-2.8125955474,4.369,  !- X,Y,Z ==> Vertex 3 {m}
    .0344588046,-8.5046955474,4.369;  !- X,Y,Z ==> Vertex 4 {m}

   ! Block 1, LIVING ROOM, Partition - 10.464 m2 (Block 1, BATHROOM), Surface Area: 10.4638

  BuildingSurface:Detailed,
    Block1:LIVINGROOM_Partition_11_0_0,  !- Name
    Wall,                    !- Surface Type
    Project partition,       !- Construction Name
    Block1:LIVINGROOM,       !- Zone Name
    ,                        !- Space Name
    Surface,                 !- Outside Boundary Condition
    Block1:BATHROOM_Partition_7_0_10005,  !- Outside Boundary Condition Object
    NoSun,                   !- Sun Exposure
    NoWind,                  !- Wind Exposure
    0,                       !- View Factor to Ground
    4,                       !- Number of Vertices
    .0344588,-2.8125955474,0,  !- X,Y,Z ==> Vertex 1 {m}
    -2.3605412,-2.8125955474,0,  !- X,Y,Z ==> Vertex 2 {m}
    -2.3605412,-2.8125955474,4.369,  !- X,Y,Z ==> Vertex 3 {m}
    .0344588,-2.8125955474,4.369;  !- X,Y,Z ==> Vertex 4 {m}

   ! Block 1, LIVING ROOM, Partition - 10.464 m2 (Block 1, BATHROOM), Surface Area: 10.4638 <Other side>

  BuildingSurface:Detailed,
    Block1:BATHROOM_Partition_7_0_10005,  !- Name
    Wall,                    !- Surface Type
    Project partition_Rev,   !- Construction Name
    Block1:BATHROOM,         !- Zone Name
    ,                        !- Space Name
    Surface,                 !- Outside Boundary Condition
    Block1:LIVINGROOM_Partition_11_0_0,  !- Outside Boundary Condition Object
    NoSun,                   !- Sun Exposure
    NoWind,                  !- Wind Exposure
    0,                       !- View Factor to Ground
    4,                       !- Number of Vertices
    -2.3605412,-2.8125955474,0,  !- X,Y,Z ==> Vertex 1 {m}
    .0344588,-2.8125955474,0,  !- X,Y,Z ==> Vertex 2 {m}
    .0344588,-2.8125955474,4.369,  !- X,Y,Z ==> Vertex 3 {m}
    -2.3605412,-2.8125955474,4.369;  !- X,Y,Z ==> Vertex 4 {m}

! Block 1 - BATHROOM

  Zone,
    Block1:BATHROOM,         !- Name
    0,                       !- Direction of Relative North {deg}
    0,                       !- X Origin {m}
    0,                       !- Y Origin {m}
    0,                       !- Z Origin {m}
    1,                       !- Type
    1,                       !- Multiplier
    ,                        !- Ceiling Height {m}
    19.0465,                 !- Volume {m3}
    4.3595,                  !- Floor Area {m2}
    TARP,                    !- Zone Inside Convection Algorithm
    ,                        !- Zone Outside Convection Algorithm
    Yes;                     !- Part of Total Floor Area

  PEOPLE,
    People Block1:BATHROOM,  !- Name
    Block1:BATHROOM,         !- Zone or ZoneList or Space or SpaceList Name
    Dwell_DomBath_Occ,       !- Number of People Schedule Name
    People/Area,             !- Number of People Calculation Method
    ,                        !- Number of People
    .018736842,              !- People per Floor Area {person/m2}
    ,                        !- Floor Area per Person {m2/person}
    .3,                      !- Fraction Radiant
    AutoCalculate,           !- Sensible Heat Fraction
    Activity Schedule 104,   !- Activity Level Schedule Name
    .0000000382,             !- Carbon Dioxide Generation Rate {m3/s-W}
    No,                      !- Enable ASHRAE 55 Comfort Warnings
    EnclosureAveraged,       !- Mean Radiant Temperature Calculation Type
    ,                        !- Surface Name/Angle Factor List Name
    Work efficiency,         !- Work Efficiency Schedule Name
    ClothingInsulationSchedule,  !- Clothing Insulation Calculation Method
    ,                        !- Clothing Insulation Calculation Method Schedule Name
    Default clothing schedule (Northern hemisphere),  !- Clothing Insulation Schedule Name
    AirVelocitySchedule;     !- Air Velocity Schedule Name

  Schedule:Compact,
    Activity Schedule 104,   !- Name
    Any Number,              !- Schedule Type Limits Name
    Through: 12/31,          !- Field 1
    For: AllDays,            !- Field 2
    Until: 24:00,108;        !- Field 3

  Lights,
    Block1:BATHROOM,         !- Name
    Block1:BATHROOM,         !- Zone or ZoneList or Space or SpaceList Name
    Dwell_DomBath_Light,     !- Schedule Name
    Watts/Area,              !- Design Level Calculation Method
    ,                        !- Lighting Level {W}
    7.5,                     !- Watts per Floor Area {W/m2}
    ,                        !- Watts per Person {W/person}
    0,                       !- Return Air Fraction
    .42,                     !- Fraction Radiant
    .18,                     !- Fraction Visible
    1,                       !- Fraction Replaceable
    ;                        !- End-Use Subcategory

   ! Equipment gain 1

  OtherEquipment,
    Block1:BATHROOM Equipment gain 1,  !- Name
    Electricity,             !- Fuel Type
    Block1:BATHROOM,         !- Zone or ZoneList or Space or SpaceList Name
    Dwell_DomBath_Equip,     !- Schedule Name
    Watts/Area,              !- Design Level Calculation Method
    ,                        !- Design Level {W}
    1.67,                    !- Power per Floor Area {W/m2}
    ,                        !- Power per Person {W/person}
    0,                       !- Fraction Latent
    .2,                      !- Fraction Radiant
    0,                       !- Fraction Lost
    0,                       !- Carbon Dioxide Generation Rate {m3/s-W}
    ELECTRIC EQUIPMENT#Block1:BATHROOM#05;  !- End-Use Subcategory

   ! DHW 1

  WaterUse:Equipment,
    DHW Block1:BATHROOM,     !- Name
    DHW Block1:BATHROOM,     !- End-Use Subcategory
    3.34610745614035E-07,    !- Peak Flow Rate {m3/s}
    Dwell_DomBath_Occ,       !- Flow Rate Fraction Schedule Name
    DHW Supply Temperature Block1:BATHROOM,  !- Target Temperature Schedule Name
    DHW Supply Temperature Block1:BATHROOM,  !- Hot Water Supply Temperature Schedule Name
    DHW Mains Temperature Block1:BATHROOM,  !- Cold Water Supply Temperature Schedule Name
    Block1:BATHROOM,         !- Zone Name
    ,                        !- Sensible Fraction Schedule Name
    ;                        !- Latent Fraction Schedule Name

  Schedule:Compact,
    DHW Supply Temperature Block1:BATHROOM,  !- Name
    Temperature,             !- Schedule Type Limits Name
    Through: 12/31,          !- Field 1
    For: AllDays,            !- Field 2
    Until: 24:00,65;         !- Field 3

  Schedule:Compact,
    DHW Mains Temperature Block1:BATHROOM,  !- Name
    Temperature,             !- Schedule Type Limits Name
    Through: 12/31,          !- Field 1
    For: AllDays,            !- Field 2
    Until: 24:00,10;         !- Field 3

  ZoneInfiltration:DesignFlowRate,
    Block1:BATHROOM Infiltration,  !- Name
    Block1:BATHROOM,         !- Zone or ZoneList or Space or SpaceList Name
    On 24/7,                 !- Schedule Name
    Flow/zone,               !- Design Flow Rate Calculation Method
    .003703,                 !- Design Flow Rate {m3/s}
    ,                        !- Flow Rate per Floor Area {m3/s-m2}
    ,                        !- Flow Rate per Exterior Surface Area {m3/s-m2}
    ,                        !- Air Changes per Hour {1/hr}
    1,                       !- Constant Term Coefficient
    0,                       !- Temperature Term Coefficient
    0,                       !- Velocity Term Coefficient
    0;                       !- Velocity Squared Term Coefficient

   ! Block 1, BATHROOM, Ground floor - 6.450 m2 (Ground), Surface Area: 1.102m2

  BuildingSurface:Detailed,
    Block1:BATHROOM_GroundFloor_0_0_0,  !- Name
    Floor,                   !- Surface Type
    Project ground floor,    !- Construction Name
    Block1:BATHROOM,         !- Zone Name
    ,                        !- Space Name
    Ground,                  !- Outside Boundary Condition
    ,                        !- Outside Boundary Condition Object
    NoSun,                   !- Sun Exposure
    NoWind,                  !- Wind Exposure
    AutoCalculate,           !- View Factor to Ground
    4,                       !- Number of Vertices
    -1.7965411954,-2.8125955474,0,  !- X,Y,Z ==> Vertex 1 {m}
    -2.3605411954,-2.8125955474,0,  !- X,Y,Z ==> Vertex 2 {m}
    -2.3605411954,-.8585955474,0,  !- X,Y,Z ==> Vertex 3 {m}
    -1.7965411954,-.8585955474,0;  !- X,Y,Z ==> Vertex 4 {m}

   ! Block 1, BATHROOM, Ground floor - 6.450 m2 (Ground), Surface Area: 5.348m2

  BuildingSurface:Detailed,
    Block1:BATHROOM_GroundFloor_0_0_1,  !- Name
    Floor,                   !- Surface Type
    Project ground floor,    !- Construction Name
    Block1:BATHROOM,         !- Zone Name
    ,                        !- Space Name
    Ground,                  !- Outside Boundary Condition
    ,                        !- Outside Boundary Condition Object
    NoSun,                   !- Sun Exposure
    NoWind,                  !- Wind Exposure
    AutoCalculate,           !- View Factor to Ground
    4,                       !- Number of Vertices
    .0344588046,-2.8125955474,0,  !- X,Y,Z ==> Vertex 1 {m}
    -1.7965411954,-2.8125955474,0,  !- X,Y,Z ==> Vertex 2 {m}
    -1.7965411954,.1084044526,0,  !- X,Y,Z ==> Vertex 3 {m}
    .0344588046,.1084044526,0;  !- X,Y,Z ==> Vertex 4 {m}

   ! Block 1, BATHROOM, Roof - 6.450 m2, Surface Area: 1.771m2

  BuildingSurface:Detailed,
    Block1:BATHROOM_Roof_1_0_0,  !- Name
    Roof,                    !- Surface Type
    Copy of Roof Ins Entirely above Deck R-4O (7.O) U-O.O25 (O.142),  !- Construction Name
    Block1:BATHROOM,         !- Zone Name
    ,                        !- Space Name
    Outdoors,                !- Outside Boundary Condition
    ,                        !- Outside Boundary Condition Object
    SunExposed,              !- Sun Exposure
    WindExposed,             !- Wind Exposure
    AutoCalculate,           !- View Factor to Ground
    4,                       !- Number of Vertices
    -1.7965411954,-.8585955474,4.369,  !- X,Y,Z ==> Vertex 1 {m}
    .0344588046,-.8585955474,4.369,  !- X,Y,Z ==> Vertex 2 {m}
    .0344588046,.1084044526,4.369,  !- X,Y,Z ==> Vertex 3 {m}
    -1.7965411954,.1084044526,4.369;  !- X,Y,Z ==> Vertex 4 {m}

   ! Block 1, BATHROOM, Roof - 6.450 m2, Surface Area: 4.680m2

  BuildingSurface:Detailed,
    Block1:BATHROOM_Roof_1_0_1,  !- Name
    Roof,                    !- Surface Type
    Copy of Roof Ins Entirely above Deck R-4O (7.O) U-O.O25 (O.142),  !- Construction Name
    Block1:BATHROOM,         !- Zone Name
    ,                        !- Space Name
    Outdoors,                !- Outside Boundary Condition
    ,                        !- Outside Boundary Condition Object
    SunExposed,              !- Sun Exposure
    WindExposed,             !- Wind Exposure
    AutoCalculate,           !- View Factor to Ground
    4,                       !- Number of Vertices
    -2.3605411954,-2.8125955474,4.369,  !- X,Y,Z ==> Vertex 1 {m}
    .0344588046,-2.8125955474,4.369,  !- X,Y,Z ==> Vertex 2 {m}
    .0344588046,-.8585955474,4.369,  !- X,Y,Z ==> Vertex 3 {m}
    -2.3605411954,-.8585955474,4.369;  !- X,Y,Z ==> Vertex 4 {m}

   ! Block 1, BATHROOM, Wall - 12.762 m2 - 90.0  , Surface Area: 12.762m2

  BuildingSurface:Detailed,
    Block1:BATHROOM_Wall_2_0_0,  !- Name
    Wall,                    !- Surface Type
    Copy of Wall Mass R-23.O (4.O5) U-O.O41 (O.23),  !- Construction Name
    Block1:BATHROOM,         !- Zone Name
    ,                        !- Space Name
    Outdoors,                !- Outside Boundary Condition
    ,                        !- Outside Boundary Condition Object
    SunExposed,              !- Sun Exposure
    WindExposed,             !- Wind Exposure
    AutoCalculate,           !- View Factor to Ground
    4,                       !- Number of Vertices
    .0344588046,-2.8125955474,0,  !- X,Y,Z ==> Vertex 1 {m}
    .0344588046,.1084044526,0,  !- X,Y,Z ==> Vertex 2 {m}
    .0344588046,.1084044526,4.369,  !- X,Y,Z ==> Vertex 3 {m}
    .0344588046,-2.8125955474,4.369;  !- X,Y,Z ==> Vertex 4 {m}

   ! Block 1, BATHROOM, Wall - 8.000 m2 - 0.0  , Surface Area: 8.000m2

  BuildingSurface:Detailed,
    Block1:BATHROOM_Wall_3_0_0,  !- Name
    Wall,                    !- Surface Type
    Copy of Wall Mass R-23.O (4.O5) U-O.O41 (O.23),  !- Construction Name
    Block1:BATHROOM,         !- Zone Name
    ,                        !- Space Name
    Outdoors,                !- Outside Boundary Condition
    ,                        !- Outside Boundary Condition Object
    SunExposed,              !- Sun Exposure
    WindExposed,             !- Wind Exposure
    AutoCalculate,           !- View Factor to Ground
    4,                       !- Number of Vertices
    .0344588046,.1084044526,0,  !- X,Y,Z ==> Vertex 1 {m}
    -1.7965411954,.1084044526,0,  !- X,Y,Z ==> Vertex 2 {m}
    -1.7965411954,.1084044526,4.369,  !- X,Y,Z ==> Vertex 3 {m}
    .0344588046,.1084044526,4.369;  !- X,Y,Z ==> Vertex 4 {m}

! Block 1 - CLOSET

  Zone,
    Block1:CLOSET,           !- Name
    0,                       !- Direction of Relative North {deg}
    0,                       !- X Origin {m}
    0,                       !- Y Origin {m}
    0,                       !- Z Origin {m}
    1,                       !- Type
    1,                       !- Multiplier
    ,                        !- Ceiling Height {m}
    6.3161,                  !- Volume {m3}
    1.4457,                  !- Floor Area {m2}
    TARP,                    !- Zone Inside Convection Algorithm
    ,                        !- Zone Outside Convection Algorithm
    Yes;                     !- Part of Total Floor Area

  PEOPLE,
    People Block1:CLOSET,    !- Name
    Block1:CLOSET,           !- Zone or ZoneList or Space or SpaceList Name
    Dwell_DomCirculation_Occ,!- Number of People Schedule Name
    People/Area,             !- Number of People Calculation Method
    ,                        !- Number of People
    .015503876,              !- People per Floor Area {person/m2}
    ,                        !- Floor Area per Person {m2/person}
    .3,                      !- Fraction Radiant
    AutoCalculate,           !- Sensible Heat Fraction
    Activity Schedule 113,   !- Activity Level Schedule Name
    .0000000382,             !- Carbon Dioxide Generation Rate {m3/s-W}
    No,                      !- Enable ASHRAE 55 Comfort Warnings
    EnclosureAveraged,       !- Mean Radiant Temperature Calculation Type
    ,                        !- Surface Name/Angle Factor List Name
    Work efficiency,         !- Work Efficiency Schedule Name
    ClothingInsulationSchedule,  !- Clothing Insulation Calculation Method
    ,                        !- Clothing Insulation Calculation Method Schedule Name
    Default clothing schedule (Northern hemisphere),  !- Clothing Insulation Schedule Name
    AirVelocitySchedule;     !- Air Velocity Schedule Name

  Schedule:Compact,
    Activity Schedule 113,   !- Name
    Any Number,              !- Schedule Type Limits Name
    Through: 12/31,          !- Field 1
    For: AllDays,            !- Field 2
    Until: 24:00,162;        !- Field 3

  Lights,
    Block1:CLOSET,           !- Name
    Block1:CLOSET,           !- Zone or ZoneList or Space or SpaceList Name
    Dwell_DomCirculation_Light,  !- Schedule Name
    Watts/Area,              !- Design Level Calculation Method
    ,                        !- Lighting Level {W}
    5,                       !- Watts per Floor Area {W/m2}
    ,                        !- Watts per Person {W/person}
    0,                       !- Return Air Fraction
    .42,                     !- Fraction Radiant
    .18,                     !- Fraction Visible
    1,                       !- Fraction Replaceable
    ;                        !- End-Use Subcategory

   ! Equipment gain 1

  OtherEquipment,
    Block1:CLOSET Equipment gain 1,  !- Name
    Electricity,             !- Fuel Type
    Block1:CLOSET,           !- Zone or ZoneList or Space or SpaceList Name
    Dwell_DomCirculation_Equip,  !- Schedule Name
    Watts/Area,              !- Design Level Calculation Method
    ,                        !- Design Level {W}
    1.57,                    !- Power per Floor Area {W/m2}
    ,                        !- Power per Person {W/person}
    0,                       !- Fraction Latent
    .2,                      !- Fraction Radiant
    0,                       !- Fraction Lost
    0,                       !- Carbon Dioxide Generation Rate {m3/s-W}
    ELECTRIC EQUIPMENT#Block1:CLOSET#05;  !- End-Use Subcategory

   ! DHW 1

  WaterUse:Equipment,
    DHW Block1:CLOSET,       !- Name
    DHW Block1:CLOSET,       !- End-Use Subcategory
    6.45489775051125E-08,    !- Peak Flow Rate {m3/s}
    Dwell_DomCirculation_Occ,!- Flow Rate Fraction Schedule Name
    DHW Supply Temperature Block1:CLOSET,  !- Target Temperature Schedule Name
    DHW Supply Temperature Block1:CLOSET,  !- Hot Water Supply Temperature Schedule Name
    DHW Mains Temperature Block1:CLOSET,  !- Cold Water Supply Temperature Schedule Name
    Block1:CLOSET,           !- Zone Name
    ,                        !- Sensible Fraction Schedule Name
    ;                        !- Latent Fraction Schedule Name

  Schedule:Compact,
    DHW Supply Temperature Block1:CLOSET,  !- Name
    Temperature,             !- Schedule Type Limits Name
    Through: 12/31,          !- Field 1
    For: AllDays,            !- Field 2
    Until: 24:00,65;         !- Field 3

  Schedule:Compact,
    DHW Mains Temperature Block1:CLOSET,  !- Name
    Temperature,             !- Schedule Type Limits Name
    Through: 12/31,          !- Field 1
    For: AllDays,            !- Field 2
    Until: 24:00,10;         !- Field 3

  ZoneInfiltration:DesignFlowRate,
    Block1:CLOSET Infiltration,  !- Name
    Block1:CLOSET,           !- Zone or ZoneList or Space or SpaceList Name
    On 24/7,                 !- Schedule Name
    Flow/zone,               !- Design Flow Rate Calculation Method
    .001228,                 !- Design Flow Rate {m3/s}
    ,                        !- Flow Rate per Floor Area {m3/s-m2}
    ,                        !- Flow Rate per Exterior Surface Area {m3/s-m2}
    ,                        !- Air Changes per Hour {1/hr}
    1,                       !- Constant Term Coefficient
    0,                       !- Temperature Term Coefficient
    0,                       !- Velocity Term Coefficient
    0;                       !- Velocity Squared Term Coefficient

   ! Block 1, CLOSET, Ground floor - 3.483 m2 (Ground), Surface Area: 3.483m2

  BuildingSurface:Detailed,
    Block1:CLOSET_GroundFloor_0_0_0,  !- Name
    Floor,                   !- Surface Type
    Project ground floor,    !- Construction Name
    Block1:CLOSET,           !- Zone Name
    ,                        !- Space Name
    Ground,                  !- Outside Boundary Condition
    ,                        !- Outside Boundary Condition Object
    NoSun,                   !- Sun Exposure
    NoWind,                  !- Wind Exposure
    AutoCalculate,           !- View Factor to Ground
    4,                       !- Number of Vertices
    -3.7456411954,-3.9045955474,0,  !- X,Y,Z ==> Vertex 1 {m}
    -4.6136411954,-3.9045955474,0,  !- X,Y,Z ==> Vertex 2 {m}
    -4.6136411954,.1084044526,0,  !- X,Y,Z ==> Vertex 3 {m}
    -3.7456411954,.1084044526,0;  !- X,Y,Z ==> Vertex 4 {m}

   ! Block 1, CLOSET, Roof - 3.483 m2, Surface Area: 3.483m2

  BuildingSurface:Detailed,
    Block1:CLOSET_Roof_1_0_0,!- Name
    Roof,                    !- Surface Type
    Copy of Roof Ins Entirely above Deck R-4O (7.O) U-O.O25 (O.142),  !- Construction Name
    Block1:CLOSET,           !- Zone Name
    ,                        !- Space Name
    Outdoors,                !- Outside Boundary Condition
    ,                        !- Outside Boundary Condition Object
    SunExposed,              !- Sun Exposure
    WindExposed,             !- Wind Exposure
    AutoCalculate,           !- View Factor to Ground
    4,                       !- Number of Vertices
    -4.6136411954,-3.9045955474,4.369,  !- X,Y,Z ==> Vertex 1 {m}
    -3.7456411954,-3.9045955474,4.369,  !- X,Y,Z ==> Vertex 2 {m}
    -3.7456411954,.1084044526,4.369,  !- X,Y,Z ==> Vertex 3 {m}
    -4.6136411954,.1084044526,4.369;  !- X,Y,Z ==> Vertex 4 {m}

   ! Block 1, CLOSET, Wall - 3.792 m2 - 0.0  , Surface Area: 3.792m2

  BuildingSurface:Detailed,
    Block1:CLOSET_Wall_3_0_0,!- Name
    Wall,                    !- Surface Type
    Copy of Wall Mass R-23.O (4.O5) U-O.O41 (O.23),  !- Construction Name
    Block1:CLOSET,           !- Zone Name
    ,                        !- Space Name
    Outdoors,                !- Outside Boundary Condition
    ,                        !- Outside Boundary Condition Object
    SunExposed,              !- Sun Exposure
    WindExposed,             !- Wind Exposure
    AutoCalculate,           !- View Factor to Ground
    4,                       !- Number of Vertices
    -3.7456411954,.1084044526,0,  !- X,Y,Z ==> Vertex 1 {m}
    -4.6136411954,.1084044526,0,  !- X,Y,Z ==> Vertex 2 {m}
    -4.6136411954,.1084044526,4.369,  !- X,Y,Z ==> Vertex 3 {m}
    -3.7456411954,.1084044526,4.369;  !- X,Y,Z ==> Vertex 4 {m}

   ! Block 1, CLOSET, Wall - 17.533 m2 - 270.0  , Surface Area: 17.533m2

  BuildingSurface:Detailed,
    Block1:CLOSET_Wall_4_0_0,!- Name
    Wall,                    !- Surface Type
    Copy of Wall Mass R-23.O (4.O5) U-O.O41 (O.23),  !- Construction Name
    Block1:CLOSET,           !- Zone Name
    ,                        !- Space Name
    Outdoors,                !- Outside Boundary Condition
    ,                        !- Outside Boundary Condition Object
    SunExposed,              !- Sun Exposure
    WindExposed,             !- Wind Exposure
    AutoCalculate,           !- View Factor to Ground
    4,                       !- Number of Vertices
    -4.6136411954,.1084044526,0,  !- X,Y,Z ==> Vertex 1 {m}
    -4.6136411954,-3.9045955474,0,  !- X,Y,Z ==> Vertex 2 {m}
    -4.6136411954,-3.9045955474,4.369,  !- X,Y,Z ==> Vertex 3 {m}
    -4.6136411954,.1084044526,4.369;  !- X,Y,Z ==> Vertex 4 {m}

  WindowProperty:FrameAndDivider,
    1,                       !- Name
    0.04,                    !- Frame Width {m}
    0.0,                     !- Frame Outside Projection {m}
    0.0,                     !- Frame Inside Projection {m}
    9.5,                     !- Frame Conductance {W/m2-K}
    1.0,                     !- Ratio of Frame-Edge Glass Conductance to Center-Of-Glass Conductance
    0.5,                     !- Frame Solar Absorptance
    0.5,                     !- Frame Visible Absorptance
    0.9,                     !- Frame Thermal Hemispherical Emissivity
    DividedLite,             !- Divider Type
    0.020,                   !- Divider Width {m}
    1,                       !- Number of Horizontal Dividers
    1,                       !- Number of Vertical Dividers
    0.0,                     !- Divider Outside Projection {m}
    0.0,                     !- Divider Inside Projection {m}
    9.5,                     !- Divider Conductance {W/m2-K}
    1.0,                     !- Ratio of Divider-Edge Glass Conductance to Center-Of-Glass Conductance
    0.5,                     !- Divider Solar Absorptance
    0.5,                     !- Divider Visible Absorptance
    0.9,                     !- Divider Thermal Hemispherical Emissivity
    0.5,                     !- Outside Reveal Solar Absorptance
    0.0,                     !- Inside Sill Depth {m}
    0.5,                     !- Inside Sill Solar Absorptance
    0.0,                     !- Inside Reveal Depth {m}
    0.5,                     !- Inside Reveal Solar Absorptance
    CurtainWall;             !- NFRC Product Type for Assembly Calculations

  Schedule:Year,
    Zone Control Type Sched, !- Name
    Control Type,            !- Schedule Type Limits Name
    Winter Control Type Week Sch,  !- Schedule:Week Name 1
    1,                       !- Start Month 1
    1,                       !- Start Day 1
    3,                       !- End Month 1
    31,                      !- End Day 1
    Summer Control Type Week Sch,  !- Schedule:Week Name 2
    4,                       !- Start Month 2
    1,                       !- Start Day 2
    9,                       !- End Month 2
    30,                      !- End Day 2
    Winter Control Type Week Sch,  !- Schedule:Week Name 3
    10,                      !- Start Month 3
    1,                       !- Start Day 3
    12,                      !- End Month 3
    31;                      !- End Day 3

! Modified schedule: TM59_Living_Heat

  Schedule:Compact,
    Block1:LIVINGROOM Heating Setpoint Schedule,  !- Name
    Temperature,             !- Schedule Type Limits Name
    Through: 30 Apr,         !- Field 1
    For: Weekdays Weekends Holidays, !- Field 2
    Until: 14:00,12,         !- Field 3
    Until: 23:00,21,         !- Field 5
    Until: 24:00,12,         !- Field 7
    For: WinterDesignDay,    !- Field 9
    Until: 24:00,21,         !- Field 10
    For: AllOtherDays,       !- Field 12
    Until: 24:00,-50,        !- Field 13
    Through: 30 Sep,         !- Field 15
    For:AllDays,             !- Field 16
    Until: 24:00,12,         !- Field 17
    Through: 31 Dec,         !- Field 19
    For: Weekdays Weekends Holidays, !- Field 20
    Until: 14:00,12,         !- Field 21
    Until: 23:00,21,         !- Field 23
    Until: 24:00,12,         !- Field 25
    For: AllOtherDays,       !- Field 27
    Until: 24:00,-50;        !- Field 28

! Modified schedule: TM59_Living_Heat

  Schedule:Compact,
    Block1:LIVINGROOM Heating Availability Sch,  !- Name
    Temperature,             !- Schedule Type Limits Name
    Through: 30 Apr,         !- Field 1
    For: Weekdays Weekends Holidays, !- Field 2
    Until: 14:00,1,          !- Field 3
    Until: 23:00,1,          !- Field 5
    Until: 24:00,1,          !- Field 7
    For: WinterDesignDay,    !- Field 9
    Until: 24:00,1,          !- Field 10
    For: AllOtherDays,       !- Field 12
    Until: 24:00,0,          !- Field 13
    Through: 30 Sep,         !- Field 15
    For:AllDays,             !- Field 16
    Until: 24:00,1,          !- Field 17
    Through: 31 Dec,         !- Field 19
    For: Weekdays Weekends Holidays, !- Field 20
    Until: 14:00,1,          !- Field 21
    Until: 23:00,1,          !- Field 23
    Until: 24:00,1,          !- Field 25
    For: AllOtherDays,       !- Field 27
    Until: 24:00,0;          !- Field 28

! Modified schedule: Dwell_DomLounge_Cool

  Schedule:Compact,
    Block1:LIVINGROOM Cooling SP Sch,  !- Name
    Temperature,             !- Schedule Type Limits Name
    Through: 31 Dec,         !- Field 1
    For: Weekdays SummerDesignDay, !- Field 2
    Until: 14:00,100,        !- Field 3
    Until: 23:00,25,         !- Field 5
    Until: 24:00,100,        !- Field 7
    For: Weekends,           !- Field 9
    Until: 14:00,100,        !- Field 10
    Until: 23:00,25,         !- Field 12
    Until: 24:00,100,        !- Field 14
    For: Holidays,           !- Field 16
    Until: 14:00,100,        !- Field 17
    Until: 23:00,25,         !- Field 19
    Until: 24:00,100,        !- Field 21
    For: WinterDesignDay AllOtherDays, !- Field 23
    Until: 24:00,100;        !- Field 24

! Modified schedule: Dwell_DomLounge_Cool

  Schedule:Compact,
    Block1:LIVINGROOM Cooling Availability Sch,  !- Name
    Temperature,             !- Schedule Type Limits Name
    Through: 31 Dec,         !- Field 1
    For: Weekdays SummerDesignDay, !- Field 2
    Until: 14:00,0,          !- Field 3
    Until: 23:00,1,          !- Field 5
    Until: 24:00,0,          !- Field 7
    For: Weekends,           !- Field 9
    Until: 14:00,0,          !- Field 10
    Until: 23:00,1,          !- Field 12
    Until: 24:00,0,          !- Field 14
    For: Holidays,           !- Field 16
    Until: 14:00,0,          !- Field 17
    Until: 23:00,1,          !- Field 19
    Until: 24:00,0,          !- Field 21
    For: WinterDesignDay AllOtherDays, !- Field 23
    Until: 24:00,0;          !- Field 24

  Sizing:Zone,
    Block1:LIVINGROOM,       !- Zone or ZoneList Name
    SupplyAirTemperature,    !- Zone Cooling Design Supply Air Temperature Input Method
    12,                      !- Zone Cooling Design Supply Air Temperature {C}
    0,                       !- Zone Cooling Design Supply Air Temperature Difference {deltaC}
    SupplyAirTemperature,    !- Zone Heating Design Supply Air Temperature Input Method
    35,                      !- Zone Heating Design Supply Air Temperature {C}
    0,                       !- Zone Heating Design Supply Air Temperature Difference {deltaC}
    0.0077,                  !- Zone Cooling Design Supply Air Humidity Ratio {kgWater/kgDryAir}
    0.0156,                  !- Zone Heating Design Supply Air Humidity Ratio {kgWater/kgDryAir}
    Block1:LIVINGROOM,       !- Design Specification Outdoor Air Object Name
    1.25,                    !- Zone Heating Sizing Factor
    1.15,                    !- Zone Cooling Sizing Factor
    DesignDay,               !- Cooling Design Air Flow Method
    ,                        !- Cooling Design Air Flow Rate {m3/s}
    ,                        !- Cooling Minimum Air Flow per Zone Floor Area {m3/s-m2}
    ,                        !- Cooling Minimum Air Flow {m3/s}
    0,                       !- Cooling Minimum Air Flow Fraction
    DesignDay,               !- Heating Design Air Flow Method
    ,                        !- Heating Design Air Flow Rate {m3/s}
    ,                        !- Heating Maximum Air Flow per Zone Floor Area {m3/s-m2}
    ,                        !- Heating Maximum Air Flow {m3/s}
    ,                        !- Heating Maximum Air Flow Fraction
    Block1:LIVINGROOM,       !- Design Specification Zone Air Distribution Object Name
    No,                      !- Account for Dedicated Outdoor Air System
    NeutralSupplyAir,        !- Dedicated Outdoor Air System Control Strategy
    autosize,                !- Dedicated Outdoor Air Low Setpoint Temperature for Design {C}
    autosize,                !- Dedicated Outdoor Air High Setpoint Temperature for Design {C}
    Sensible Load Only No Latent Load,  !- Zone Load Sizing Method
    HumidityRatioDifference, !- Zone Latent Cooling Design Supply Air Humidity Ratio Input Method
    ,                        !- Zone Dehumidification Design Supply Air Humidity Ratio {kgWater/kgDryAir}
    0.005,                   !- Zone Cooling Design Supply Air Humidity Ratio Difference {kgWater/kgDryAir}
    HumidityRatioDifference, !- Zone Latent Heating Design Supply Air Humidity Ratio Input Method
    ,                        !- Zone Humidification Design Supply Air Humidity Ratio {kgWater/kgDryAir}
    0.005;                   !- Zone Humidification Design Supply Air Humidity Ratio Difference {kgWater/kgDryAir}

  DesignSpecification:ZoneAirDistribution,
    Block1:LIVINGROOM,       !- Name
    1,                       !- Zone Air Distribution Effectiveness in Cooling Mode {dimensionless}
    1;                       !- Zone Air Distribution Effectiveness in Heating Mode {dimensionless}

  DesignSpecification:OutdoorAir,
    Block1:LIVINGROOM,       !- Name
    Sum,                     !- Outdoor Air Method
    .01,                     !- Outdoor Air Flow per Person {m3/s-person}
    0,                       !- Outdoor Air Flow per Zone Floor Area {m3/s-m2}
    0,                       !- Outdoor Air Flow per Zone {m3/s}
    0,                       !- Outdoor Air Flow Air Changes per Hour {1/hr}
    TM59_Living_Occ;         !- Outdoor Air Schedule Name

  ZoneControl:Thermostat,
    Block1:LIVINGROOM Thermostat,  !- Name
    Block1:LIVINGROOM,       !- Zone or ZoneList Name
    Zone Control Type Sched, !- Control Type Schedule Name
    ThermostatSetpoint:DualSetpoint,  !- Control 1 Object Type
    Dual Setpoint - Zone Block1:LIVINGROOM;  !- Control 1 Name

  ThermostatSetpoint:DualSetpoint,
    Dual Setpoint - Zone Block1:LIVINGROOM,  !- Name
    Block1:LIVINGROOM Heating Setpoint Schedule,  !- Heating Setpoint Temperature Schedule Name
    Block1:LIVINGROOM Cooling SP Sch;  !- Cooling Setpoint Temperature Schedule Name

  ZoneHVAC:EquipmentConnections,
    Block1:LIVINGROOM,       !- Zone Name
    Block1:LIVINGROOM Equipment,  !- Zone Conditioning Equipment List Name
    Block1:LIVINGROOM Inlets,!- Zone Air Inlet Node or NodeList Name
    ,                        !- Zone Air Exhaust Node or NodeList Name
    Node Block1:LIVINGROOM Zone,  !- Zone Air Node Name
    Node Block1:LIVINGROOM Out;  !- Zone Return Air Node or NodeList Name

  ZoneHVAC:EquipmentList,
    Block1:LIVINGROOM Equipment,  !- Name
    SequentialLoad,          !- Load Distribution Scheme
    ZoneHVAC:IdealLoadsAirSystem,  !- Zone Equipment 1 Object Type
    Block1:LIVINGROOM Ideal Loads Air,  !- Zone Equipment 1 Name
    1,                       !- Zone Equipment 1 Cooling Sequence
    1,                       !- Zone Equipment 1 Heating or No-Load Sequence
    ,                        !- Zone Equipment 1 Sequential Cooling Fraction Schedule Name
    ;                        !- Zone Equipment 1 Sequential Heating Fraction Schedule Name

  ZoneHVAC:IdealLoadsAirSystem,
    Block1:LIVINGROOM Ideal Loads Air,  !- Name
    ,                        !- Availability Schedule Name
    Node Block1:LIVINGROOM In,  !- Zone Supply Air Node Name
    ,                        !- Zone Exhaust Air Node Name
    ,                        !- System Inlet Air Node Name
    35,                      !- Maximum Heating Supply Air Temperature {C}
    12,                      !- Minimum Cooling Supply Air Temperature {C}
    0.0156,                  !- Maximum Heating Supply Air Humidity Ratio {kgWater/kgDryAir}
    0.0077,                  !- Minimum Cooling Supply Air Humidity Ratio {kgWater/kgDryAir}
    LimitCapacity,           !- Heating Limit
    Autosize,                !- Maximum Heating Air Flow Rate {m3/s}
    Autosize,                !- Maximum Sensible Heating Capacity {W}
    LimitFlowRateAndCapacity,!- Cooling Limit
    Autosize,                !- Maximum Cooling Air Flow Rate {m3/s}
    Autosize,                !- Maximum Total Cooling Capacity {W}
    Block1:LIVINGROOM Heating Availability Sch,  !- Heating Availability Schedule Name
    Block1:LIVINGROOM Cooling Availability Sch,  !- Cooling Availability Schedule Name
    None,                    !- Dehumidification Control Type
    ,                        !- Cooling Sensible Heat Ratio {dimensionless}
    None,                    !- Humidification Control Type
    Block1:LIVINGROOM,       !- Design Specification Outdoor Air Object Name
    ,                        !- Outdoor Air Inlet Node Name
    ,                        !- Demand Controlled Ventilation Type
    NoEconomizer,            !- Outdoor Air Economizer Type
    None,                    !- Heat Recovery Type
    ,                        !- Sensible Heat Recovery Effectiveness {dimensionless}
    ;                        !- Latent Heat Recovery Effectiveness {dimensionless}

  NodeList,
    Block1:LIVINGROOM Inlets,!- Name
    Node Block1:LIVINGROOM In;  !- Node 1 Name

! Modified schedule: Dwell_DomBath_Heat

  Schedule:Compact,
    Block1:BATHROOM Heating Setpoint Schedule,  !- Name
    Temperature,             !- Schedule Type Limits Name
    Through: 31 Dec,         !- Field 1
    For: Weekdays SummerDesignDay, !- Field 2
    Until: 05:00,12,         !- Field 3
    Until: 10:00,18,         !- Field 5
    Until: 17:00,12,         !- Field 7
    Until: 23:00,18,         !- Field 9
    Until: 24:00,12,         !- Field 11
    For: WinterDesignDay,    !- Field 13
    Until: 24:00,18,         !- Field 14
    For: Weekends,           !- Field 16
    Until: 05:00,12,         !- Field 17
    Until: 10:00,18,         !- Field 19
    Until: 17:00,12,         !- Field 21
    Until: 23:00,18,         !- Field 23
    Until: 24:00,12,         !- Field 25
    For: Holidays,           !- Field 27
    Until: 05:00,12,         !- Field 28
    Until: 10:00,18,         !- Field 30
    Until: 17:00,12,         !- Field 32
    Until: 23:00,18,         !- Field 34
    Until: 24:00,12,         !- Field 36
    For: AllOtherDays,       !- Field 38
    Until: 24:00,-50;        !- Field 39

! Modified schedule: Dwell_DomBath_Heat

  Schedule:Compact,
    Block1:BATHROOM Heating Availability Sch,  !- Name
    Temperature,             !- Schedule Type Limits Name
    Through: 31 Dec,         !- Field 1
    For: Weekdays SummerDesignDay, !- Field 2
    Until: 05:00,1,          !- Field 3
    Until: 10:00,1,          !- Field 5
    Until: 17:00,1,          !- Field 7
    Until: 23:00,1,          !- Field 9
    Until: 24:00,1,          !- Field 11
    For: WinterDesignDay,    !- Field 13
    Until: 24:00,1,          !- Field 14
    For: Weekends,           !- Field 16
    Until: 05:00,1,          !- Field 17
    Until: 10:00,1,          !- Field 19
    Until: 17:00,1,          !- Field 21
    Until: 23:00,1,          !- Field 23
    Until: 24:00,1,          !- Field 25
    For: Holidays,           !- Field 27
    Until: 05:00,1,          !- Field 28
    Until: 10:00,1,          !- Field 30
    Until: 17:00,1,          !- Field 32
    Until: 23:00,1,          !- Field 34
    Until: 24:00,1,          !- Field 36
    For: AllOtherDays,       !- Field 38
    Until: 24:00,0;          !- Field 39

! Modified schedule: Dwell_DomBath_Cool

  Schedule:Compact,
    Block1:BATHROOM Cooling SP Sch,  !- Name
    Temperature,             !- Schedule Type Limits Name
    Through: 31 Dec,         !- Field 1
    For: Weekdays SummerDesignDay, !- Field 2
    Until: 05:00,100,        !- Field 3
    Until: 10:00,25,         !- Field 5
    Until: 17:00,100,        !- Field 7
    Until: 23:00,25,         !- Field 9
    Until: 24:00,100,        !- Field 11
    For: Weekends,           !- Field 13
    Until: 05:00,100,        !- Field 14
    Until: 10:00,25,         !- Field 16
    Until: 17:00,100,        !- Field 18
    Until: 23:00,25,         !- Field 20
    Until: 24:00,100,        !- Field 22
    For: Holidays,           !- Field 24
    Until: 05:00,100,        !- Field 25
    Until: 10:00,25,         !- Field 27
    Until: 17:00,100,        !- Field 29
    Until: 23:00,25,         !- Field 31
    Until: 24:00,100,        !- Field 33
    For: WinterDesignDay AllOtherDays, !- Field 35
    Until: 24:00,100;        !- Field 36

! Modified schedule: Dwell_DomBath_Cool

  Schedule:Compact,
    Block1:BATHROOM Cooling Availability Sch,  !- Name
    Temperature,             !- Schedule Type Limits Name
    Through: 31 Dec,         !- Field 1
    For: Weekdays SummerDesignDay, !- Field 2
    Until: 05:00,0,          !- Field 3
    Until: 10:00,1,          !- Field 5
    Until: 17:00,0,          !- Field 7
    Until: 23:00,1,          !- Field 9
    Until: 24:00,0,          !- Field 11
    For: Weekends,           !- Field 13
    Until: 05:00,0,          !- Field 14
    Until: 10:00,1,          !- Field 16
    Until: 17:00,0,          !- Field 18
    Until: 23:00,1,          !- Field 20
    Until: 24:00,0,          !- Field 22
    For: Holidays,           !- Field 24
    Until: 05:00,0,          !- Field 25
    Until: 10:00,1,          !- Field 27
    Until: 17:00,0,          !- Field 29
    Until: 23:00,1,          !- Field 31
    Until: 24:00,0,          !- Field 33
    For: WinterDesignDay AllOtherDays, !- Field 35
    Until: 24:00,0;          !- Field 36

  Sizing:Zone,
    Block1:BATHROOM,         !- Zone or ZoneList Name
    SupplyAirTemperature,    !- Zone Cooling Design Supply Air Temperature Input Method
    12,                      !- Zone Cooling Design Supply Air Temperature {C}
    0,                       !- Zone Cooling Design Supply Air Temperature Difference {deltaC}
    SupplyAirTemperature,    !- Zone Heating Design Supply Air Temperature Input Method
    35,                      !- Zone Heating Design Supply Air Temperature {C}
    0,                       !- Zone Heating Design Supply Air Temperature Difference {deltaC}
    0.0077,                  !- Zone Cooling Design Supply Air Humidity Ratio {kgWater/kgDryAir}
    0.0156,                  !- Zone Heating Design Supply Air Humidity Ratio {kgWater/kgDryAir}
    Block1:BATHROOM,         !- Design Specification Outdoor Air Object Name
    1.25,                    !- Zone Heating Sizing Factor
    1.15,                    !- Zone Cooling Sizing Factor
    DesignDay,               !- Cooling Design Air Flow Method
    ,                        !- Cooling Design Air Flow Rate {m3/s}
    ,                        !- Cooling Minimum Air Flow per Zone Floor Area {m3/s-m2}
    ,                        !- Cooling Minimum Air Flow {m3/s}
    0,                       !- Cooling Minimum Air Flow Fraction
    DesignDay,               !- Heating Design Air Flow Method
    ,                        !- Heating Design Air Flow Rate {m3/s}
    ,                        !- Heating Maximum Air Flow per Zone Floor Area {m3/s-m2}
    ,                        !- Heating Maximum Air Flow {m3/s}
    ,                        !- Heating Maximum Air Flow Fraction
    Block1:BATHROOM,         !- Design Specification Zone Air Distribution Object Name
    No,                      !- Account for Dedicated Outdoor Air System
    NeutralSupplyAir,        !- Dedicated Outdoor Air System Control Strategy
    autosize,                !- Dedicated Outdoor Air Low Setpoint Temperature for Design {C}
    autosize,                !- Dedicated Outdoor Air High Setpoint Temperature for Design {C}
    Sensible Load Only No Latent Load,  !- Zone Load Sizing Method
    HumidityRatioDifference, !- Zone Latent Cooling Design Supply Air Humidity Ratio Input Method
    ,                        !- Zone Dehumidification Design Supply Air Humidity Ratio {kgWater/kgDryAir}
    0.005,                   !- Zone Cooling Design Supply Air Humidity Ratio Difference {kgWater/kgDryAir}
    HumidityRatioDifference, !- Zone Latent Heating Design Supply Air Humidity Ratio Input Method
    ,                        !- Zone Humidification Design Supply Air Humidity Ratio {kgWater/kgDryAir}
    0.005;                   !- Zone Humidification Design Supply Air Humidity Ratio Difference {kgWater/kgDryAir}

  DesignSpecification:ZoneAirDistribution,
    Block1:BATHROOM,         !- Name
    1,                       !- Zone Air Distribution Effectiveness in Cooling Mode {dimensionless}
    1;                       !- Zone Air Distribution Effectiveness in Heating Mode {dimensionless}

  DesignSpecification:OutdoorAir,
    Block1:BATHROOM,         !- Name
    Sum,                     !- Outdoor Air Method
    .012,                    !- Outdoor Air Flow per Person {m3/s-person}
    0,                       !- Outdoor Air Flow per Zone Floor Area {m3/s-m2}
    0,                       !- Outdoor Air Flow per Zone {m3/s}
    0,                       !- Outdoor Air Flow Air Changes per Hour {1/hr}
    Dwell_DomBath_Occ;       !- Outdoor Air Schedule Name

  ZoneControl:Thermostat,
    Block1:BATHROOM Thermostat,  !- Name
    Block1:BATHROOM,         !- Zone or ZoneList Name
    Zone Control Type Sched, !- Control Type Schedule Name
    ThermostatSetpoint:DualSetpoint,  !- Control 1 Object Type
    Dual Setpoint - Zone Block1:BATHROOM;  !- Control 1 Name

  ThermostatSetpoint:DualSetpoint,
    Dual Setpoint - Zone Block1:BATHROOM,  !- Name
    Block1:BATHROOM Heating Setpoint Schedule,  !- Heating Setpoint Temperature Schedule Name
    Block1:BATHROOM Cooling SP Sch;  !- Cooling Setpoint Temperature Schedule Name

  ZoneHVAC:EquipmentConnections,
    Block1:BATHROOM,         !- Zone Name
    Block1:BATHROOM Equipment,  !- Zone Conditioning Equipment List Name
    Block1:BATHROOM Inlets,  !- Zone Air Inlet Node or NodeList Name
    ,                        !- Zone Air Exhaust Node or NodeList Name
    Node Block1:BATHROOM Zone,  !- Zone Air Node Name
    Node Block1:BATHROOM Out;!- Zone Return Air Node or NodeList Name

  ZoneHVAC:EquipmentList,
    Block1:BATHROOM Equipment,  !- Name
    SequentialLoad,          !- Load Distribution Scheme
    ZoneHVAC:IdealLoadsAirSystem,  !- Zone Equipment 1 Object Type
    Block1:BATHROOM Ideal Loads Air,  !- Zone Equipment 1 Name
    1,                       !- Zone Equipment 1 Cooling Sequence
    1,                       !- Zone Equipment 1 Heating or No-Load Sequence
    ,                        !- Zone Equipment 1 Sequential Cooling Fraction Schedule Name
    ;                        !- Zone Equipment 1 Sequential Heating Fraction Schedule Name

  ZoneHVAC:IdealLoadsAirSystem,
    Block1:BATHROOM Ideal Loads Air,  !- Name
    ,                        !- Availability Schedule Name
    Node Block1:BATHROOM In, !- Zone Supply Air Node Name
    ,                        !- Zone Exhaust Air Node Name
    ,                        !- System Inlet Air Node Name
    35,                      !- Maximum Heating Supply Air Temperature {C}
    12,                      !- Minimum Cooling Supply Air Temperature {C}
    0.0156,                  !- Maximum Heating Supply Air Humidity Ratio {kgWater/kgDryAir}
    0.0077,                  !- Minimum Cooling Supply Air Humidity Ratio {kgWater/kgDryAir}
    LimitCapacity,           !- Heating Limit
    Autosize,                !- Maximum Heating Air Flow Rate {m3/s}
    Autosize,                !- Maximum Sensible Heating Capacity {W}
    LimitFlowRateAndCapacity,!- Cooling Limit
    Autosize,                !- Maximum Cooling Air Flow Rate {m3/s}
    Autosize,                !- Maximum Total Cooling Capacity {W}
    Block1:BATHROOM Heating Availability Sch,  !- Heating Availability Schedule Name
    Block1:BATHROOM Cooling Availability Sch,  !- Cooling Availability Schedule Name
    None,                    !- Dehumidification Control Type
    ,                        !- Cooling Sensible Heat Ratio {dimensionless}
    None,                    !- Humidification Control Type
    Block1:BATHROOM,         !- Design Specification Outdoor Air Object Name
    ,                        !- Outdoor Air Inlet Node Name
    ,                        !- Demand Controlled Ventilation Type
    NoEconomizer,            !- Outdoor Air Economizer Type
    None,                    !- Heat Recovery Type
    ,                        !- Sensible Heat Recovery Effectiveness {dimensionless}
    ;                        !- Latent Heat Recovery Effectiveness {dimensionless}

  NodeList,
    Block1:BATHROOM Inlets,  !- Name
    Node Block1:BATHROOM In; !- Node 1 Name

! Modified schedule: Dwell_DomCirculation_Heat

  Schedule:Compact,
    Block1:CLOSET Heating Setpoint Schedule,  !- Name
    Temperature,             !- Schedule Type Limits Name
    Through: 31 Dec,         !- Field 1
    For: Weekdays SummerDesignDay, !- Field 2
    Until: 05:00,12,         !- Field 3
    Until: 10:00,18,         !- Field 5
    Until: 17:00,12,         !- Field 7
    Until: 23:00,18,         !- Field 9
    Until: 24:00,12,         !- Field 11
    For: WinterDesignDay,    !- Field 13
    Until: 24:00,18,         !- Field 14
    For: Weekends,           !- Field 16
    Until: 05:00,12,         !- Field 17
    Until: 24:00,18,         !- Field 19
    For: Holidays,           !- Field 21
    Until: 05:00,12,         !- Field 22
    Until: 24:00,18,         !- Field 24
    For: AllOtherDays,       !- Field 26
    Until: 24:00,-50;        !- Field 27

! Modified schedule: Dwell_DomCirculation_Heat

  Schedule:Compact,
    Block1:CLOSET Heating Availability Sch,  !- Name
    Temperature,             !- Schedule Type Limits Name
    Through: 31 Dec,         !- Field 1
    For: Weekdays SummerDesignDay, !- Field 2
    Until: 05:00,1,          !- Field 3
    Until: 10:00,1,          !- Field 5
    Until: 17:00,1,          !- Field 7
    Until: 23:00,1,          !- Field 9
    Until: 24:00,1,          !- Field 11
    For: WinterDesignDay,    !- Field 13
    Until: 24:00,1,          !- Field 14
    For: Weekends,           !- Field 16
    Until: 05:00,1,          !- Field 17
    Until: 24:00,1,          !- Field 19
    For: Holidays,           !- Field 21
    Until: 05:00,1,          !- Field 22
    Until: 24:00,1,          !- Field 24
    For: AllOtherDays,       !- Field 26
    Until: 24:00,0;          !- Field 27

! Modified schedule: Dwell_DomCirculation_Cool

  Schedule:Compact,
    Block1:CLOSET Cooling SP Sch,  !- Name
    Temperature,             !- Schedule Type Limits Name
    Through: 31 Dec,         !- Field 1
    For: Weekdays SummerDesignDay, !- Field 2
    Until: 05:00,100,        !- Field 3
    Until: 10:00,25,         !- Field 5
    Until: 17:00,100,        !- Field 7
    Until: 23:00,25,         !- Field 9
    Until: 24:00,100,        !- Field 11
    For: Weekends,           !- Field 13
    Until: 05:00,100,        !- Field 14
    Until: 24:00,25,         !- Field 16
    For: Holidays,           !- Field 18
    Until: 05:00,100,        !- Field 19
    Until: 23:00,25,         !- Field 21
    Until: 24:00,100,        !- Field 23
    For: WinterDesignDay AllOtherDays, !- Field 25
    Until: 24:00,100;        !- Field 26

! Modified schedule: Dwell_DomCirculation_Cool

  Schedule:Compact,
    Block1:CLOSET Cooling Availability Sch,  !- Name
    Temperature,             !- Schedule Type Limits Name
    Through: 31 Dec,         !- Field 1
    For: Weekdays SummerDesignDay, !- Field 2
    Until: 05:00,0,          !- Field 3
    Until: 10:00,1,          !- Field 5
    Until: 17:00,0,          !- Field 7
    Until: 23:00,1,          !- Field 9
    Until: 24:00,0,          !- Field 11
    For: Weekends,           !- Field 13
    Until: 05:00,0,          !- Field 14
    Until: 24:00,1,          !- Field 16
    For: Holidays,           !- Field 18
    Until: 05:00,0,          !- Field 19
    Until: 23:00,1,          !- Field 21
    Until: 24:00,0,          !- Field 23
    For: WinterDesignDay AllOtherDays, !- Field 25
    Until: 24:00,0;          !- Field 26

  Sizing:Zone,
    Block1:CLOSET,           !- Zone or ZoneList Name
    SupplyAirTemperature,    !- Zone Cooling Design Supply Air Temperature Input Method
    12,                      !- Zone Cooling Design Supply Air Temperature {C}
    0,                       !- Zone Cooling Design Supply Air Temperature Difference {deltaC}
    SupplyAirTemperature,    !- Zone Heating Design Supply Air Temperature Input Method
    35,                      !- Zone Heating Design Supply Air Temperature {C}
    0,                       !- Zone Heating Design Supply Air Temperature Difference {deltaC}
    0.0077,                  !- Zone Cooling Design Supply Air Humidity Ratio {kgWater/kgDryAir}
    0.0156,                  !- Zone Heating Design Supply Air Humidity Ratio {kgWater/kgDryAir}
    Block1:CLOSET,           !- Design Specification Outdoor Air Object Name
    1.25,                    !- Zone Heating Sizing Factor
    1.15,                    !- Zone Cooling Sizing Factor
    DesignDay,               !- Cooling Design Air Flow Method
    ,                        !- Cooling Design Air Flow Rate {m3/s}
    ,                        !- Cooling Minimum Air Flow per Zone Floor Area {m3/s-m2}
    ,                        !- Cooling Minimum Air Flow {m3/s}
    0,                       !- Cooling Minimum Air Flow Fraction
    DesignDay,               !- Heating Design Air Flow Method
    ,                        !- Heating Design Air Flow Rate {m3/s}
    ,                        !- Heating Maximum Air Flow per Zone Floor Area {m3/s-m2}
    ,                        !- Heating Maximum Air Flow {m3/s}
    ,                        !- Heating Maximum Air Flow Fraction
    Block1:CLOSET,           !- Design Specification Zone Air Distribution Object Name
    No,                      !- Account for Dedicated Outdoor Air System
    NeutralSupplyAir,        !- Dedicated Outdoor Air System Control Strategy
    autosize,                !- Dedicated Outdoor Air Low Setpoint Temperature for Design {C}
    autosize,                !- Dedicated Outdoor Air High Setpoint Temperature for Design {C}
    Sensible Load Only No Latent Load,  !- Zone Load Sizing Method
    HumidityRatioDifference, !- Zone Latent Cooling Design Supply Air Humidity Ratio Input Method
    ,                        !- Zone Dehumidification Design Supply Air Humidity Ratio {kgWater/kgDryAir}
    0.005,                   !- Zone Cooling Design Supply Air Humidity Ratio Difference {kgWater/kgDryAir}
    HumidityRatioDifference, !- Zone Latent Heating Design Supply Air Humidity Ratio Input Method
    ,                        !- Zone Humidification Design Supply Air Humidity Ratio {kgWater/kgDryAir}
    0.005;                   !- Zone Humidification Design Supply Air Humidity Ratio Difference {kgWater/kgDryAir}

  DesignSpecification:ZoneAirDistribution,
    Block1:CLOSET,           !- Name
    1,                       !- Zone Air Distribution Effectiveness in Cooling Mode {dimensionless}
    1;                       !- Zone Air Distribution Effectiveness in Heating Mode {dimensionless}

  DesignSpecification:OutdoorAir,
    Block1:CLOSET,           !- Name
    Sum,                     !- Outdoor Air Method
    .01,                     !- Outdoor Air Flow per Person {m3/s-person}
    0,                       !- Outdoor Air Flow per Zone Floor Area {m3/s-m2}
    0,                       !- Outdoor Air Flow per Zone {m3/s}
    0,                       !- Outdoor Air Flow Air Changes per Hour {1/hr}
    Dwell_DomCirculation_Occ;!- Outdoor Air Schedule Name

  ZoneControl:Thermostat,
    Block1:CLOSET Thermostat,!- Name
    Block1:CLOSET,           !- Zone or ZoneList Name
    Zone Control Type Sched, !- Control Type Schedule Name
    ThermostatSetpoint:DualSetpoint,  !- Control 1 Object Type
    Dual Setpoint - Zone Block1:CLOSET;  !- Control 1 Name

  ThermostatSetpoint:DualSetpoint,
    Dual Setpoint - Zone Block1:CLOSET,  !- Name
    Block1:CLOSET Heating Setpoint Schedule,  !- Heating Setpoint Temperature Schedule Name
    Block1:CLOSET Cooling SP Sch;  !- Cooling Setpoint Temperature Schedule Name

  ZoneHVAC:EquipmentConnections,
    Block1:CLOSET,           !- Zone Name
    Block1:CLOSET Equipment, !- Zone Conditioning Equipment List Name
    Block1:CLOSET Inlets,    !- Zone Air Inlet Node or NodeList Name
    ,                        !- Zone Air Exhaust Node or NodeList Name
    Node Block1:CLOSET Zone, !- Zone Air Node Name
    Node Block1:CLOSET Out;  !- Zone Return Air Node or NodeList Name

  ZoneHVAC:EquipmentList,
    Block1:CLOSET Equipment, !- Name
    SequentialLoad,          !- Load Distribution Scheme
    ZoneHVAC:IdealLoadsAirSystem,  !- Zone Equipment 1 Object Type
    Block1:CLOSET Ideal Loads Air,  !- Zone Equipment 1 Name
    1,                       !- Zone Equipment 1 Cooling Sequence
    1,                       !- Zone Equipment 1 Heating or No-Load Sequence
    ,                        !- Zone Equipment 1 Sequential Cooling Fraction Schedule Name
    ;                        !- Zone Equipment 1 Sequential Heating Fraction Schedule Name

  ZoneHVAC:IdealLoadsAirSystem,
    Block1:CLOSET Ideal Loads Air,  !- Name
    ,                        !- Availability Schedule Name
    Node Block1:CLOSET In,   !- Zone Supply Air Node Name
    ,                        !- Zone Exhaust Air Node Name
    ,                        !- System Inlet Air Node Name
    35,                      !- Maximum Heating Supply Air Temperature {C}
    12,                      !- Minimum Cooling Supply Air Temperature {C}
    0.0156,                  !- Maximum Heating Supply Air Humidity Ratio {kgWater/kgDryAir}
    0.0077,                  !- Minimum Cooling Supply Air Humidity Ratio {kgWater/kgDryAir}
    LimitCapacity,           !- Heating Limit
    Autosize,                !- Maximum Heating Air Flow Rate {m3/s}
    Autosize,                !- Maximum Sensible Heating Capacity {W}
    LimitFlowRateAndCapacity,!- Cooling Limit
    Autosize,                !- Maximum Cooling Air Flow Rate {m3/s}
    Autosize,                !- Maximum Total Cooling Capacity {W}
    Block1:CLOSET Heating Availability Sch,  !- Heating Availability Schedule Name
    Block1:CLOSET Cooling Availability Sch,  !- Cooling Availability Schedule Name
    None,                    !- Dehumidification Control Type
    ,                        !- Cooling Sensible Heat Ratio {dimensionless}
    None,                    !- Humidification Control Type
    Block1:CLOSET,           !- Design Specification Outdoor Air Object Name
    ,                        !- Outdoor Air Inlet Node Name
    ,                        !- Demand Controlled Ventilation Type
    NoEconomizer,            !- Outdoor Air Economizer Type
    None,                    !- Heat Recovery Type
    ,                        !- Sensible Heat Recovery Effectiveness {dimensionless}
    ;                        !- Latent Heat Recovery Effectiveness {dimensionless}

  NodeList,
    Block1:CLOSET Inlets,    !- Name
    Node Block1:CLOSET In;   !- Node 1 Name

  Sizing:Parameters,
    1.25,                    !- Heating Sizing Factor
    1.15,                    !- Cooling Sizing Factor
    2;                       !- Timesteps in Averaging Window

  Output:Table:SummaryReports,
    AnnualBuildingUtilityPerformanceSummary,  !- Report 1 Name
    DemandEndUseComponentsSummary,  !- Report 2 Name
    SensibleHeatGainSummary, !- Report 3 Name
    InputVerificationandResultsSummary,  !- Report 4 Name
    AdaptiveComfortSummary,  !- Report 5 Name
    ClimaticDataSummary,     !- Report 6 Name
    EquipmentSummary,        !- Report 7 Name
    EnvelopeSummary,         !- Report 8 Name
    LightingSummary,         !- Report 9 Name
    HVACSizingSummary,       !- Report 10 Name
    SystemSummary,           !- Report 11 Name
    ComponentSizingSummary,  !- Report 12 Name
    OutdoorAirSummary,       !- Report 13 Name
    ObjectCountSummary,      !- Report 14 Name
    EndUseEnergyConsumptionOtherFuelsMonthly,  !- Report 15 Name
    PeakEnergyEndUseOtherFuelsMonthly;  !- Report 16 Name

  OutputControl:Table:Style,
    CommaAndHTML,            !- Column Separator
    JtoKWH;                  !- Unit Conversion

  Output:EnvironmentalImpactFactors,
    Hourly;                  !- Reporting Frequency

  Output:EnvironmentalImpactFactors,
    Daily;                   !- Reporting Frequency

  Output:EnvironmentalImpactFactors,
    Monthly;                 !- Reporting Frequency

  Output:EnvironmentalImpactFactors,
    RunPeriod;               !- Reporting Frequency

  EnvironmentalImpactFactors,
    0.3,                     !- District Heating Water Efficiency
    3.0,                     !- District Cooling COP {W/W}
    0.25,                    !- District Heating Steam Conversion Efficiency
    80.7272,                 !- Total Carbon Equivalent Emission Factor From N2O {kg/kg}
    6.2727,                  !- Total Carbon Equivalent Emission Factor From CH4 {kg/kg}
    0.2727;                  !- Total Carbon Equivalent Emission Factor From CO2 {kg/kg}

  Output:Meter,Electricity:Facility,hourly;

  Output:Meter,NaturalGas:Facility,hourly;

  Output:Meter,InteriorEquipment:Electricity,hourly;

  Output:Meter,InteriorLights:Electricity,hourly;

  Output:Meter,Electricity:Facility,daily;

  Output:Meter,NaturalGas:Facility,daily;

  Output:Meter,InteriorEquipment:Electricity,daily;

  Output:Meter,InteriorLights:Electricity,daily;

  Output:Meter,Electricity:Facility,monthly;

  Output:Meter,NaturalGas:Facility,monthly;

  Output:Meter,InteriorEquipment:Electricity,monthly;

  Output:Meter,InteriorLights:Electricity,monthly;

  Output:Meter,Electricity:Facility,runperiod;

  Output:Meter,NaturalGas:Facility,runperiod;

  Output:Meter,InteriorEquipment:Electricity,runperiod;

  Output:Meter,InteriorLights:Electricity,runperiod;

  OutputControl:IlluminanceMap:Style,
    Comma;                   !- Column Separator

  Output:Variable,*,Zone Mean Air Temperature,hourly,;

  Output:Variable,*,Zone Mean Radiant Temperature,hourly,;

  Output:Variable,*,Zone Operative Temperature,hourly,;

  Output:Variable,*,Zone Air Relative Humidity,hourly,;

  Output:Variable,*,Zone Mean Air Temperature,daily,;

  Output:Variable,*,Zone Mean Radiant Temperature,daily,;

  Output:Variable,*,Zone Operative Temperature,daily,;

  Output:Variable,*,Zone Air Relative Humidity,daily,;

  Output:Variable,*,Zone Mean Air Temperature,monthly,;

  Output:Variable,*,Zone Mean Radiant Temperature,monthly,;

  Output:Variable,*,Zone Operative Temperature,monthly,;

  Output:Variable,*,Zone Air Relative Humidity,monthly,;

  Output:Variable,*,Zone Mean Air Temperature,runperiod,;

  Output:Variable,*,Zone Mean Radiant Temperature,runperiod,;

  Output:Variable,*,Zone Operative Temperature,runperiod,;

  Output:Variable,*,Zone Air Relative Humidity,runperiod,;

  Output:Variable,*,Zone Infiltration Current Density Air Change Rate,hourly;

  Output:Variable,*,Zone Mechanical Ventilation Air Changes per Hour,hourly;

  Output:Variable,*,Zone Ventilation Current Density Air Change Rate,hourly;

  Output:Variable,*,Zone Infiltration Current Density Air Change Rate,daily;

  Output:Variable,*,Zone Mechanical Ventilation Air Changes per Hour,daily;

  Output:Variable,*,Zone Ventilation Current Density Air Change Rate,daily;

  Output:Variable,*,Zone Infiltration Current Density Air Change Rate,monthly;

  Output:Variable,*,Zone Mechanical Ventilation Air Changes per Hour,monthly;

  Output:Variable,*,Zone Ventilation Current Density Air Change Rate,monthly;

  Output:Variable,*,Zone Infiltration Current Density Air Change Rate,runperiod;

  Output:Variable,*,Zone Mechanical Ventilation Air Changes per Hour,runperiod;

  Output:Variable,*,Zone Ventilation Current Density Air Change Rate,runperiod;

  Output:Variable,*,Zone Total Internal Latent Gain Energy,hourly;

  Output:Variable,*,Zone Total Internal Latent Gain Energy,daily;

  Output:Variable,*,Zone Total Internal Latent Gain Energy,monthly;

  Output:Variable,*,Zone Total Internal Latent Gain Energy,runperiod;

  Output:Variable,*,Zone Ideal Loads Supply Air Sensible Cooling Rate,hourly;

  Output:Variable,*,Zone Ideal Loads Supply Air Total Cooling Rate,hourly;

  Output:Variable,*,Zone Ideal Loads Supply Air Total Heating Rate,hourly;

  Output:Variable,*,Zone Ideal Loads Heat Recovery Sensible Heating Rate,hourly;

  Output:Variable,*,Zone Ideal Loads Heat Recovery Total Heating Rate,hourly;

  Output:Variable,*,Zone Ideal Loads Heat Recovery Sensible Cooling Rate,hourly;

  Output:Variable,*,Zone Ideal Loads Heat Recovery Total Cooling Rate,hourly;

  Output:Variable,*,Zone Ventilation Fan Electricity Energy,hourly;

  Output:Variable,*,Fan Electricity Rate,hourly;

  Output:Variable,*,Water Use Equipment Heating Rate,hourly;

  Output:Variable,*,Facility Total Produced Electricity Energy,hourly;

  Output:Variable,*,Zone Air System Sensible Heating Rate,hourly;

  Output:Variable,*,Zone Air System Sensible Cooling Rate,hourly;

  Output:Variable,*,Zone Radiant HVAC Heating Rate,hourly;

  Output:Variable,*,Zone Ideal Loads Supply Air Sensible Cooling Rate,daily;

  Output:Variable,*,Zone Ideal Loads Supply Air Total Cooling Rate,daily;

  Output:Variable,*,Zone Ideal Loads Supply Air Total Heating Rate,daily;

  Output:Variable,*,Zone Ideal Loads Heat Recovery Sensible Heating Rate,daily;

  Output:Variable,*,Zone Ideal Loads Heat Recovery Total Heating Rate,daily;

  Output:Variable,*,Zone Ideal Loads Heat Recovery Sensible Cooling Rate,daily;

  Output:Variable,*,Zone Ideal Loads Heat Recovery Total Cooling Rate,daily;

  Output:Variable,*,Zone Ventilation Fan Electricity Energy,daily;

  Output:Variable,*,Fan Electricity Rate,daily;

  Output:Variable,*,Water Use Equipment Heating Rate,daily;

  Output:Variable,*,Facility Total Produced Electricity Energy,daily;

  Output:Variable,*,Zone Air System Sensible Heating Rate,daily;

  Output:Variable,*,Zone Air System Sensible Cooling Rate,daily;

  Output:Variable,*,Zone Radiant HVAC Heating Rate,daily;

  Output:Variable,*,Zone Ideal Loads Supply Air Sensible Cooling Rate,monthly;

  Output:Variable,*,Zone Ideal Loads Supply Air Total Cooling Rate,monthly;

  Output:Variable,*,Zone Ideal Loads Supply Air Total Heating Rate,monthly;

  Output:Variable,*,Zone Ideal Loads Heat Recovery Sensible Heating Rate,monthly;

  Output:Variable,*,Zone Ideal Loads Heat Recovery Total Heating Rate,monthly;

  Output:Variable,*,Zone Ideal Loads Heat Recovery Sensible Cooling Rate,monthly;

  Output:Variable,*,Zone Ideal Loads Heat Recovery Total Cooling Rate,monthly;

  Output:Variable,*,Zone Ventilation Fan Electricity Energy,monthly;

  Output:Variable,*,Fan Electricity Rate,monthly;

  Output:Variable,*,Water Use Equipment Heating Rate,monthly;

  Output:Variable,*,Facility Total Produced Electricity Energy,monthly;

  Output:Variable,*,Zone Air System Sensible Heating Rate,monthly;

  Output:Variable,*,Zone Air System Sensible Cooling Rate,monthly;

  Output:Variable,*,Zone Radiant HVAC Heating Rate,monthly;

  Output:Variable,*,Zone Ideal Loads Supply Air Sensible Cooling Rate,runperiod;

  Output:Variable,*,Zone Ideal Loads Supply Air Total Cooling Rate,runperiod;

  Output:Variable,*,Zone Ideal Loads Supply Air Total Heating Rate,runperiod;

  Output:Variable,*,Zone Ideal Loads Heat Recovery Sensible Heating Rate,runperiod;

  Output:Variable,*,Zone Ideal Loads Heat Recovery Total Heating Rate,runperiod;

  Output:Variable,*,Zone Ideal Loads Heat Recovery Sensible Cooling Rate,runperiod;

  Output:Variable,*,Zone Ideal Loads Heat Recovery Total Cooling Rate,runperiod;

  Output:Variable,*,Zone Ventilation Fan Electricity Energy,runperiod;

  Output:Variable,*,Fan Electricity Rate,runperiod;

  Output:Variable,*,Water Use Equipment Heating Rate,runperiod;

  Output:Variable,*,Facility Total Produced Electricity Energy,runperiod;

  Output:Variable,*,Zone Air System Sensible Heating Rate,runperiod;

  Output:Variable,*,Zone Air System Sensible Cooling Rate,runperiod;

  Output:Variable,*,Zone Radiant HVAC Heating Rate,runperiod;

  Output:Variable,*,Zone People Sensible Heating Rate,hourly;

  Output:Variable,*,Enclosure Windows Total Transmitted Solar Radiation Rate,hourly;

  Output:Variable,*,Enclosure Interior Windows Total Transmitted Diffuse Solar Radiation Rate,hourly;

  Output:Variable,*,Enclosure Interior Windows Total Transmitted Beam Solar Radiation Rate,hourly;

  Output:Variable,*,Zone Infiltration Sensible Heat Loss Energy,hourly;

  Output:Variable,*,Zone Infiltration Sensible Heat Gain Energy,hourly;

  Output:Variable,*,Zone Ventilation Sensible Heat Loss Energy,hourly;

  Output:Variable,*,Zone Ventilation Sensible Heat Gain Energy,hourly;

  Output:Variable,*,Zone Mixing Sensible Heat Loss Energy,hourly;

  Output:Variable,*,Zone Mixing Sensible Heat Gain Energy,hourly;

  Output:Variable,*,Zone Mixing Standard Density Volume Flow Rate,hourly;

  Output:Variable,*,Other Equipment Total Heating Rate,hourly;

  Output:Variable,*,Zone Lights Electricity Rate,hourly;

  Output:Variable,*,Lights Total Heating Rate,hourly;

  Output:Variable,*,Zone Electric Equipment Total Heating Rate,hourly;

  Output:Variable,*,Zone Gas Equipment Total Heating Rate,hourly;

  Output:Variable,*,Zone Other Equipment Total Heating Rate,hourly;

  Output:Variable,*,Water Use Equipment Heating Rate,hourly;

  Output:Variable,*,Site Outdoor Air Drybulb Temperature,hourly;

  Output:Variable,*,Site Outdoor Air Dewpoint Temperature,hourly;

  Output:Variable,*,Site Wind Speed,hourly;

  Output:Variable,*,Site Wind Direction,hourly;

  Output:Variable,*,Site Direct Solar Radiation Rate per Area,hourly;

  Output:Variable,*,Site Diffuse Solar Radiation Rate per Area,hourly;

  Output:Variable,*,Site Solar Azimuth Angle,hourly;

  Output:Variable,*,Site Solar Altitude Angle,hourly;

  Output:Variable,*,Site Outdoor Air Barometric Pressure,hourly;

  Output:Variable,*,Zone People Sensible Heating Rate,daily;

  Output:Variable,*,Enclosure Windows Total Transmitted Solar Radiation Rate,daily;

  Output:Variable,*,Enclosure Interior Windows Total Transmitted Diffuse Solar Radiation Rate,daily;

  Output:Variable,*,Enclosure Interior Windows Total Transmitted Beam Solar Radiation Rate,daily;

  Output:Variable,*,Zone Infiltration Sensible Heat Loss Energy,daily;

  Output:Variable,*,Zone Infiltration Sensible Heat Gain Energy,daily;

  Output:Variable,*,Zone Ventilation Sensible Heat Loss Energy,daily;

  Output:Variable,*,Zone Ventilation Sensible Heat Gain Energy,daily;

  Output:Variable,*,Zone Mixing Sensible Heat Loss Energy,daily;

  Output:Variable,*,Zone Mixing Sensible Heat Gain Energy,daily;

  Output:Variable,*,Zone Mixing Standard Density Volume Flow Rate,daily;

  Output:Variable,*,Other Equipment Total Heating Rate,daily;

  Output:Variable,*,Zone Lights Electricity Rate,daily;

  Output:Variable,*,Lights Total Heating Rate,daily;

  Output:Variable,*,Zone Electric Equipment Total Heating Rate,daily;

  Output:Variable,*,Zone Gas Equipment Total Heating Rate,daily;

  Output:Variable,*,Zone Other Equipment Total Heating Rate,daily;

  Output:Variable,*,Water Use Equipment Heating Rate,daily;

  Output:Variable,*,Site Outdoor Air Drybulb Temperature,daily;

  Output:Variable,*,Site Outdoor Air Dewpoint Temperature,daily;

  Output:Variable,*,Site Wind Speed,daily;

  Output:Variable,*,Site Wind Direction,daily;

  Output:Variable,*,Site Direct Solar Radiation Rate per Area,daily;

  Output:Variable,*,Site Diffuse Solar Radiation Rate per Area,daily;

  Output:Variable,*,Site Solar Azimuth Angle,daily;

  Output:Variable,*,Site Solar Altitude Angle,daily;

  Output:Variable,*,Site Outdoor Air Barometric Pressure,daily;

  Output:Variable,*,Zone People Sensible Heating Rate,monthly;

  Output:Variable,*,Enclosure Windows Total Transmitted Solar Radiation Rate,monthly;

  Output:Variable,*,Enclosure Interior Windows Total Transmitted Diffuse Solar Radiation Rate,monthly;

  Output:Variable,*,Enclosure Interior Windows Total Transmitted Beam Solar Radiation Rate,monthly;

  Output:Variable,*,Zone Infiltration Sensible Heat Loss Energy,monthly;

  Output:Variable,*,Zone Infiltration Sensible Heat Gain Energy,monthly;

  Output:Variable,*,Zone Ventilation Sensible Heat Loss Energy,monthly;

  Output:Variable,*,Zone Ventilation Sensible Heat Gain Energy,monthly;

  Output:Variable,*,Zone Mixing Sensible Heat Loss Energy,monthly;

  Output:Variable,*,Zone Mixing Sensible Heat Gain Energy,monthly;

  Output:Variable,*,Zone Mixing Standard Density Volume Flow Rate,monthly;

  Output:Variable,*,Other Equipment Total Heating Rate,monthly;

  Output:Variable,*,Zone Lights Electricity Rate,monthly;

  Output:Variable,*,Lights Total Heating Rate,monthly;

  Output:Variable,*,Zone Electric Equipment Total Heating Rate,monthly;

  Output:Variable,*,Zone Gas Equipment Total Heating Rate,monthly;

  Output:Variable,*,Zone Other Equipment Total Heating Rate,monthly;

  Output:Variable,*,Water Use Equipment Heating Rate,monthly;

  Output:Variable,*,Site Outdoor Air Drybulb Temperature,monthly;

  Output:Variable,*,Site Outdoor Air Dewpoint Temperature,monthly;

  Output:Variable,*,Site Wind Speed,monthly;

  Output:Variable,*,Site Wind Direction,monthly;

  Output:Variable,*,Site Direct Solar Radiation Rate per Area,monthly;

  Output:Variable,*,Site Diffuse Solar Radiation Rate per Area,monthly;

  Output:Variable,*,Site Solar Azimuth Angle,monthly;

  Output:Variable,*,Site Solar Altitude Angle,monthly;

  Output:Variable,*,Site Outdoor Air Barometric Pressure,monthly;

  Output:Variable,*,Zone People Sensible Heating Rate,runperiod;

  Output:Variable,*,Enclosure Windows Total Transmitted Solar Radiation Rate,runperiod;

  Output:Variable,*,Enclosure Interior Windows Total Transmitted Diffuse Solar Radiation Rate,runperiod;

  Output:Variable,*,Enclosure Interior Windows Total Transmitted Beam Solar Radiation Rate,runperiod;

  Output:Variable,*,Zone Infiltration Sensible Heat Loss Energy,runperiod;

  Output:Variable,*,Zone Infiltration Sensible Heat Gain Energy,runperiod;

  Output:Variable,*,Zone Ventilation Sensible Heat Loss Energy,runperiod;

  Output:Variable,*,Zone Ventilation Sensible Heat Gain Energy,runperiod;

  Output:Variable,*,Zone Mixing Sensible Heat Loss Energy,runperiod;

  Output:Variable,*,Zone Mixing Sensible Heat Gain Energy,runperiod;

  Output:Variable,*,Zone Mixing Standard Density Volume Flow Rate,runperiod;

  Output:Variable,*,Other Equipment Total Heating Rate,runperiod;

  Output:Variable,*,Zone Lights Electricity Rate,runperiod;

  Output:Variable,*,Lights Total Heating Rate,runperiod;

  Output:Variable,*,Zone Electric Equipment Total Heating Rate,runperiod;

  Output:Variable,*,Zone Gas Equipment Total Heating Rate,runperiod;

  Output:Variable,*,Zone Other Equipment Total Heating Rate,runperiod;

  Output:Variable,*,Water Use Equipment Heating Rate,runperiod;

  Output:Variable,*,Site Outdoor Air Drybulb Temperature,runperiod;

  Output:Variable,*,Site Outdoor Air Dewpoint Temperature,runperiod;

  Output:Variable,*,Site Wind Speed,runperiod;

  Output:Variable,*,Site Wind Direction,runperiod;

  Output:Variable,*,Site Direct Solar Radiation Rate per Area,runperiod;

  Output:Variable,*,Site Diffuse Solar Radiation Rate per Area,runperiod;

  Output:Variable,*,Site Solar Azimuth Angle,runperiod;

  Output:Variable,*,Site Solar Altitude Angle,runperiod;

  Output:Variable,*,Site Outdoor Air Barometric Pressure,runperiod;

  Output:Surfaces:Drawing,DXF,Triangulate3DFace;

  Output:Surfaces:List,Details;

  Output:Constructions,Constructions;

  OutputControl:ReportingTolerances,
    1.11,                    !- Tolerance for Time Heating Setpoint Not Met {deltaC}
    1.11;                    !- Tolerance for Time Cooling Setpoint Not Met {deltaC}

  Output:Diagnostics,
    DisplayAdvancedReportVariables;  !- Key 1

